p cnf 40 2948
-27 1 0
-27 8 0
27 -1 -8 0
-27 3 0
-27 6 0
27 -3 -6 0
-28 1 0
-28 14 0
28 -1 -14 0
-28 18 0
-28 24 0
28 -18 -24 0
-29 2 0
-29 9 0
29 -2 -9 0
-29 4 0
-29 7 0
29 -4 -7 0
-30 2 0
-30 24 0
30 -2 -24 0
-30 3 0
-30 23 0
30 -3 -23 0
-31 4 0
-31 26 0
31 -4 -26 0
-31 5 0
-31 25 0
31 -5 -25 0
-32 5 0
-32 21 0
32 -5 -21 0
-32 9 0
-32 22 0
32 -9 -22 0
-33 6 0
-33 14 0
33 -6 -14 0
-33 13 0
-33 20 0
33 -13 -20 0
-34 7 0
-34 20 0
34 -7 -20 0
-34 8 0
-34 19 0
34 -8 -19 0
-35 10 0
-35 17 0
35 -10 -17 0
-35 12 0
-35 15 0
35 -12 -15 0
-36 10 0
-36 19 0
36 -10 -19 0
-36 21 0
36 -21 0
-37 11 0
-37 18 0
37 -11 -18 0
-37 13 0
-37 16 0
37 -13 -16 0
-38 11 0
-38 22 0
38 -11 -22 0
-38 12 0
38 -12 0
-39 15 0
-39 23 0
39 -15 -23 0
-39 25 0
39 -25 0
-40 16 0
-40 26 0
40 -16 -26 0
-40 17 0
40 -17 0
27 28 29 30 31 32 33 34 35 36 37 38 39 40 1 2 3 4 6 7 8 9 10 11 12 13 15 16 17 18 21 25 0
27 28 29 30 31 32 33 34 35 36 37 38 39 40 1 2 3 4 6 7 8 10 11 12 13 15 16 17 21 22 24 25 0
27 28 29 30 31 32 33 34 35 36 37 38 39 40 1 2 3 4 6 7 8 10 12 13 15 16 17 18 21 22 25 0
27 28 29 30 31 32 33 34 35 36 37 38 39 40 1 2 3 4 6 7 9 11 12 13 15 16 17 18 19 21 25 0
27 28 29 30 31 32 33 34 35 36 37 38 39 40 1 2 3 4 6 7 11 12 13 15 16 17 19 21 22 24 25 0
27 28 29 30 31 32 33 34 35 36 37 38 39 40 1 2 3 4 6 7 12 13 15 16 17 18 19 21 22 25 0
27 28 29 30 31 32 33 34 35 36 37 38 39 40 1 2 3 4 6 8 9 10 11 12 13 15 17 18 20 21 25 26 0
27 28 29 30 31 32 33 34 35 36 37 38 39 40 1 2 3 4 6 8 9 10 11 12 15 16 17 18 20 21 25 0
27 28 29 30 31 32 33 34 35 36 37 38 39 40 1 2 3 4 6 8 10 11 12 13 15 17 20 21 22 24 25 26 0
27 28 29 30 31 32 33 34 35 36 37 38 39 40 1 2 3 4 6 8 10 11 12 15 16 17 20 21 22 24 25 0
27 28 29 30 31 32 33 34 35 36 37 38 39 40 1 2 3 4 6 8 10 12 13 15 17 18 20 21 22 25 26 0
27 28 29 30 31 32 33 34 35 36 37 38 39 40 1 2 3 4 6 8 10 12 15 16 17 18 20 21 22 25 0
27 28 29 30 31 32 33 34 35 36 37 38 39 40 1 2 3 4 6 9 11 12 13 15 17 18 19 20 21 25 26 0
27 28 29 30 31 32 33 34 35 36 37 38 39 40 1 2 3 4 6 9 11 12 15 16 17 18 19 20 21 25 0
27 28 29 30 31 32 33 34 35 36 37 38 39 40 1 2 3 4 6 11 12 13 15 17 19 20 21 22 24 25 26 0
27 28 29 30 31 32 33 34 35 36 37 38 39 40 1 2 3 4 6 11 12 15 16 17 19 20 21 22 24 25 0
27 28 29 30 31 32 33 34 35 36 37 38 39 40 1 2 3 4 6 12 13 15 17 18 19 20 21 22 25 26 0
27 28 29 30 31 32 33 34 35 36 37 38 39 40 1 2 3 4 6 12 15 16 17 18 19 20 21 22 25 0
27 28 29 30 31 32 33 34 35 36 37 38 39 40 1 2 3 4 7 9 11 12 13 14 15 16 17 18 19 21 25 0
27 28 29 30 31 32 33 34 35 36 37 38 39 40 1 2 3 4 7 9 11 12 13 14 16 17 18 19 21 23 25 0
27 28 29 30 31 32 33 34 35 36 37 38 39 40 1 2 3 4 7 11 12 13 14 15 16 17 19 21 22 24 25 0
27 28 29 30 31 32 33 34 35 36 37 38 39 40 1 2 3 4 7 11 12 13 14 16 17 19 21 22 23 24 25 0
27 28 29 30 31 32 33 34 35 36 37 38 39 40 1 2 3 4 7 12 13 14 15 16 17 18 19 21 22 25 0
27 28 29 30 31 32 33 34 35 36 37 38 39 40 1 2 3 4 7 12 13 14 16 17 18 19 21 22 23 25 0
27 28 29 30 31 32 33 34 35 36 37 38 39 40 1 2 3 4 9 11 12 13 14 15 17 18 19 20 21 25 26 0
27 28 29 30 31 32 33 34 35 36 37 38 39 40 1 2 3 4 9 11 12 13 14 17 18 19 20 21 23 25 26 0
27 28 29 30 31 32 33 34 35 36 37 38 39 40 1 2 3 4 9 11 12 14 15 16 17 18 19 20 21 25 0
27 28 29 30 31 32 33 34 35 36 37 38 39 40 1 2 3 4 9 11 12 14 16 17 18 19 20 21 23 25 0
27 28 29 30 31 32 33 34 35 36 37 38 39 40 1 2 3 4 11 12 13 14 15 17 19 20 21 22 24 25 26 0
27 28 29 30 31 32 33 34 35 36 37 38 39 40 1 2 3 4 11 12 13 14 17 19 20 21 22 23 24 25 26 0
27 28 29 30 31 32 33 34 35 36 37 38 39 40 1 2 3 4 11 12 14 15 16 17 19 20 21 22 24 25 0
27 28 29 30 31 32 33 34 35 36 37 38 39 40 1 2 3 4 11 12 14 16 17 19 20 21 22 23 24 25 0
27 28 29 30 31 32 33 34 35 36 37 38 39 40 1 2 3 4 12 13 14 15 17 18 19 20 21 22 25 26 0
27 28 29 30 31 32 33 34 35 36 37 38 39 40 1 2 3 4 12 13 14 17 18 19 20 21 22 23 25 26 0
27 28 29 30 31 32 33 34 35 36 37 38 39 40 1 2 3 4 12 14 15 16 17 18 19 20 21 22 25 0
27 28 29 30 31 32 33 34 35 36 37 38 39 40 1 2 3 4 12 14 16 17 18 19 20 21 22 23 25 0
27 28 29 30 31 32 33 34 35 36 37 38 39 40 1 2 3 6 7 8 9 10 11 12 13 15 17 18 21 25 26 0
27 28 29 30 31 32 33 34 35 36 37 38 39 40 1 2 3 6 7 8 9 10 11 12 15 16 17 18 20 21 25 26 0
27 28 29 30 31 32 33 34 35 36 37 38 39 40 1 2 3 6 7 8 10 11 12 13 15 17 21 22 24 25 26 0
27 28 29 30 31 32 33 34 35 36 37 38 39 40 1 2 3 6 7 8 10 11 12 15 16 17 20 21 22 24 25 26 0
27 28 29 30 31 32 33 34 35 36 37 38 39 40 1 2 3 6 7 8 10 12 13 15 17 18 21 22 25 26 0
27 28 29 30 31 32 33 34 35 36 37 38 39 40 1 2 3 6 7 8 10 12 15 16 17 18 20 21 22 25 26 0
27 28 29 30 31 32 33 34 35 36 37 38 39 40 1 2 3 6 7 9 11 12 13 15 17 18 19 21 25 26 0
27 28 29 30 31 32 33 34 35 36 37 38 39 40 1 2 3 6 7 9 11 12 15 16 17 18 19 20 21 25 26 0
27 28 29 30 31 32 33 34 35 36 37 38 39 40 1 2 3 6 7 11 12 13 15 17 19 21 22 24 25 26 0
27 28 29 30 31 32 33 34 35 36 37 38 39 40 1 2 3 6 7 11 12 15 16 17 19 20 21 22 24 25 26 0
27 28 29 30 31 32 33 34 35 36 37 38 39 40 1 2 3 6 7 12 13 15 17 18 19 21 22 25 26 0
27 28 29 30 31 32 33 34 35 36 37 38 39 40 1 2 3 6 7 12 15 16 17 18 19 20 21 22 25 26 0
27 28 29 30 31 32 33 34 35 36 37 38 39 40 1 2 3 7 9 11 12 13 14 15 17 18 19 21 25 26 0
27 28 29 30 31 32 33 34 35 36 37 38 39 40 1 2 3 7 9 11 12 13 14 17 18 19 21 23 25 26 0
27 28 29 30 31 32 33 34 35 36 37 38 39 40 1 2 3 7 9 11 12 14 15 16 17 18 19 20 21 25 26 0
27 28 29 30 31 32 33 34 35 36 37 38 39 40 1 2 3 7 9 11 12 14 16 17 18 19 20 21 23 25 26 0
27 28 29 30 31 32 33 34 35 36 37 38 39 40 1 2 3 7 11 12 13 14 15 17 19 21 22 24 25 26 0
27 28 29 30 31 32 33 34 35 36 37 38 39 40 1 2 3 7 11 12 13 14 17 19 21 22 23 24 25 26 0
27 28 29 30 31 32 33 34 35 36 37 38 39 40 1 2 3 7 11 12 14 15 16 17 19 20 21 22 24 25 26 0
27 28 29 30 31 32 33 34 35 36 37 38 39 40 1 2 3 7 11 12 14 16 17 19 20 21 22 23 24 25 26 0
27 28 29 30 31 32 33 34 35 36 37 38 39 40 1 2 3 7 12 13 14 15 17 18 19 21 22 25 26 0
27 28 29 30 31 32 33 34 35 36 37 38 39 40 1 2 3 7 12 13 14 17 18 19 21 22 23 25 26 0
27 28 29 30 31 32 33 34 35 36 37 38 39 40 1 2 3 7 12 14 15 16 17 18 19 20 21 22 25 26 0
27 28 29 30 31 32 33 34 35 36 37 38 39 40 1 2 3 7 12 14 16 17 18 19 20 21 22 23 25 26 0
27 28 29 30 31 32 33 34 35 36 37 38 39 40 1 2 4 6 7 8 9 10 11 12 13 16 17 18 21 23 25 0
27 28 29 30 31 32 33 34 35 36 37 38 39 40 1 2 4 6 7 8 10 11 12 13 16 17 21 22 23 24 25 0
27 28 29 30 31 32 33 34 35 36 37 38 39 40 1 2 4 6 7 8 10 12 13 16 17 18 21 22 23 25 0
27 28 29 30 31 32 33 34 35 36 37 38 39 40 1 2 4 6 7 9 11 12 13 16 17 18 19 21 23 25 0
27 28 29 30 31 32 33 34 35 36 37 38 39 40 1 2 4 6 7 11 12 13 16 17 19 21 22 23 24 25 0
27 28 29 30 31 32 33 34 35 36 37 38 39 40 1 2 4 6 7 12 13 16 17 18 19 21 22 23 25 0
27 28 29 30 31 32 33 34 35 36 37 38 39 40 1 2 4 6 8 9 10 11 12 13 17 18 20 21 23 25 26 0
27 28 29 30 31 32 33 34 35 36 37 38 39 40 1 2 4 6 8 9 10 11 12 16 17 18 20 21 23 25 0
27 28 29 30 31 32 33 34 35 36 37 38 39 40 1 2 4 6 8 10 11 12 13 17 20 21 22 23 24 25 26 0
27 28 29 30 31 32 33 34 35 36 37 38 39 40 1 2 4 6 8 10 11 12 16 17 20 21 22 23 24 25 0
27 28 29 30 31 32 33 34 35 36 37 38 39 40 1 2 4 6 8 10 12 13 17 18 20 21 22 23 25 26 0
27 28 29 30 31 32 33 34 35 36 37 38 39 40 1 2 4 6 8 10 12 16 17 18 20 21 22 23 25 0
27 28 29 30 31 32 33 34 35 36 37 38 39 40 1 2 4 6 9 11 12 13 17 18 19 20 21 23 25 26 0
27 28 29 30 31 32 33 34 35 36 37 38 39 40 1 2 4 6 9 11 12 16 17 18 19 20 21 23 25 0
27 28 29 30 31 32 33 34 35 36 37 38 39 40 1 2 4 6 11 12 13 17 19 20 21 22 23 24 25 26 0
27 28 29 30 31 32 33 34 35 36 37 38 39 40 1 2 4 6 11 12 16 17 19 20 21 22 23 24 25 0
27 28 29 30 31 32 33 34 35 36 37 38 39 40 1 2 4 6 12 13 17 18 19 20 21 22 23 25 26 0
27 28 29 30 31 32 33 34 35 36 37 38 39 40 1 2 4 6 12 16 17 18 19 20 21 22 23 25 0
27 28 29 30 31 32 33 34 35 36 37 38 39 40 1 2 6 7 8 9 10 11 12 13 17 18 21 23 25 26 0
27 28 29 30 31 32 33 34 35 36 37 38 39 40 1 2 6 7 8 9 10 11 12 16 17 18 20 21 23 25 26 0
27 28 29 30 31 32 33 34 35 36 37 38 39 40 1 2 6 7 8 10 11 12 13 17 21 22 23 24 25 26 0
27 28 29 30 31 32 33 34 35 36 37 38 39 40 1 2 6 7 8 10 11 12 16 17 20 21 22 23 24 25 26 0
27 28 29 30 31 32 33 34 35 36 37 38 39 40 1 2 6 7 8 10 12 13 17 18 21 22 23 25 26 0
27 28 29 30 31 32 33 34 35 36 37 38 39 40 1 2 6 7 8 10 12 16 17 18 20 21 22 23 25 26 0
27 28 29 30 31 32 33 34 35 36 37 38 39 40 1 2 6 7 9 11 12 13 17 18 19 21 23 25 26 0
27 28 29 30 31 32 33 34 35 36 37 38 39 40 1 2 6 7 9 11 12 16 17 18 19 20 21 23 25 26 0
27 28 29 30 31 32 33 34 35 36 37 38 39 40 1 2 6 7 11 12 13 17 19 21 22 23 24 25 26 0
27 28 29 30 31 32 33 34 35 36 37 38 39 40 1 2 6 7 11 12 16 17 19 20 21 22 23 24 25 26 0
27 28 29 30 31 32 33 34 35 36 37 38 39 40 1 2 6 7 12 13 17 18 19 21 22 23 25 26 0
27 28 29 30 31 32 33 34 35 36 37 38 39 40 1 2 6 7 12 16 17 18 19 20 21 22 23 25 26 0
27 28 29 30 31 32 33 34 35 36 37 38 39 40 1 3 4 6 7 8 9 10 11 12 13 15 16 17 21 24 25 0
27 28 29 30 31 32 33 34 35 36 37 38 39 40 1 3 4 6 7 8 9 10 12 13 15 16 17 18 21 22 24 25 0
27 28 29 30 31 32 33 34 35 36 37 38 39 40 1 3 4 6 7 9 11 12 13 15 16 17 19 21 24 25 0
27 28 29 30 31 32 33 34 35 36 37 38 39 40 1 3 4 6 7 9 12 13 15 16 17 18 19 21 22 24 25 0
27 28 29 30 31 32 33 34 35 36 37 38 39 40 1 3 4 6 8 9 10 11 12 13 15 17 20 21 24 25 26 0
27 28 29 30 31 32 33 34 35 36 37 38 39 40 1 3 4 6 8 9 10 11 12 15 16 17 20 21 24 25 0
27 28 29 30 31 32 33 34 35 36 37 38 39 40 1 3 4 6 8 9 10 12 13 15 17 18 20 21 22 24 25 26 0
27 28 29 30 31 32 33 34 35 36 37 38 39 40 1 3 4 6 8 9 10 12 15 16 17 18 20 21 22 24 25 0
27 28 29 30 31 32 33 34 35 36 37 38 39 40 1 3 4 6 9 11 12 13 15 17 19 20 21 24 25 26 0
27 28 29 30 31 32 33 34 35 36 37 38 39 40 1 3 4 6 9 11 12 15 16 17 19 20 21 24 25 0
27 28 29 30 31 32 33 34 35 36 37 38 39 40 1 3 4 6 9 12 13 15 17 18 19 20 21 22 24 25 26 0
27 28 29 30 31 32 33 34 35 36 37 38 39 40 1 3 4 6 9 12 15 16 17 18 19 20 21 22 24 25 0
27 28 29 30 31 32 33 34 35 36 37 38 39 40 1 3 4 7 9 11 12 13 14 15 16 17 19 21 24 25 0
27 28 29 30 31 32 33 34 35 36 37 38 39 40 1 3 4 7 9 11 12 13 14 16 17 19 21 23 24 25 0
27 28 29 30 31 32 33 34 35 36 37 38 39 40 1 3 4 7 9 12 13 14 15 16 17 18 19 21 22 24 25 0
27 28 29 30 31 32 33 34 35 36 37 38 39 40 1 3 4 7 9 12 13 14 16 17 18 19 21 22 23 24 25 0
27 28 29 30 31 32 33 34 35 36 37 38 39 40 1 3 4 9 11 12 13 14 15 17 19 20 21 24 25 26 0
27 28 29 30 31 32 33 34 35 36 37 38 39 40 1 3 4 9 11 12 13 14 17 19 20 21 23 24 25 26 0
27 28 29 30 31 32 33 34 35 36 37 38 39 40 1 3 4 9 11 12 14 15 16 17 19 20 21 24 25 0
27 28 29 30 31 32 33 34 35 36 37 38 39 40 1 3 4 9 11 12 14 16 17 19 20 21 23 24 25 0
27 28 29 30 31 32 33 34 35 36 37 38 39 40 1 3 4 9 12 13 14 15 17 18 19 20 21 22 24 25 26 0
27 28 29 30 31 32 33 34 35 36 37 38 39 40 1 3 4 9 12 13 14 17 18 19 20 21 22 23 24 25 26 0
27 28 29 30 31 32 33 34 35 36 37 38 39 40 1 3 4 9 12 14 15 16 17 18 19 20 21 22 24 25 0
27 28 29 30 31 32 33 34 35 36 37 38 39 40 1 3 4 9 12 14 16 17 18 19 20 21 22 23 24 25 0
27 28 29 30 31 32 33 34 35 36 37 38 39 40 1 3 6 7 8 9 10 11 12 13 15 17 21 24 25 26 0
27 28 29 30 31 32 33 34 35 36 37 38 39 40 1 3 6 7 8 9 10 11 12 15 16 17 20 21 24 25 26 0
27 28 29 30 31 32 33 34 35 36 37 38 39 40 1 3 6 7 8 9 10 12 13 15 17 18 21 22 24 25 26 0
27 28 29 30 31 32 33 34 35 36 37 38 39 40 1 3 6 7 8 9 10 12 15 16 17 18 20 21 22 24 25 26 0
27 28 29 30 31 32 33 34 35 36 37 38 39 40 1 3 6 7 9 11 12 13 15 17 19 21 24 25 26 0
27 28 29 30 31 32 33 34 35 36 37 38 39 40 1 3 6 7 9 11 12 15 16 17 19 20 21 24 25 26 0
27 28 29 30 31 32 33 34 35 36 37 38 39 40 1 3 6 7 9 12 13 15 17 18 19 21 22 24 25 26 0
27 28 29 30 31 32 33 34 35 36 37 38 39 40 1 3 6 7 9 12 15 16 17 18 19 20 21 22 24 25 26 0
27 28 29 30 31 32 33 34 35 36 37 38 39 40 1 3 7 9 11 12 13 14 15 17 19 21 24 25 26 0
27 28 29 30 31 32 33 34 35 36 37 38 39 40 1 3 7 9 11 12 13 14 17 19 21 23 24 25 26 0
27 28 29 30 31 32 33 34 35 36 37 38 39 40 1 3 7 9 11 12 14 15 16 17 19 20 21 24 25 26 0
27 28 29 30 31 32 33 34 35 36 37 38 39 40 1 3 7 9 11 12 14 16 17 19 20 21 23 24 25 26 0
27 28 29 30 31 32 33 34 35 36 37 38 39 40 1 3 7 9 12 13 14 15 17 18 19 21 22 24 25 26 0
27 28 29 30 31 32 33 34 35 36 37 38 39 40 1 3 7 9 12 13 14 17 18 19 21 22 23 24 25 26 0
27 28 29 30 31 32 33 34 35 36 37 38 39 40 1 3 7 9 12 14 15 16 17 18 19 20 21 22 24 25 26 0
27 28 29 30 31 32 33 34 35 36 37 38 39 40 1 3 7 9 12 14 16 17 18 19 20 21 22 23 24 25 26 0
27 28 29 30 31 32 33 34 35 36 37 38 39 40 1 4 6 7 8 9 10 11 12 13 16 17 21 23 24 25 0
27 28 29 30 31 32 33 34 35 36 37 38 39 40 1 4 6 7 8 9 10 12 13 16 17 18 21 22 23 24 25 0
27 28 29 30 31 32 33 34 35 36 37 38 39 40 1 4 6 7 9 11 12 13 16 17 19 21 23 24 25 0
27 28 29 30 31 32 33 34 35 36 37 38 39 40 1 4 6 7 9 12 13 16 17 18 19 21 22 23 24 25 0
27 28 29 30 31 32 33 34 35 36 37 38 39 40 1 4 6 8 9 10 11 12 13 17 20 21 23 24 25 26 0
27 28 29 30 31 32 33 34 35 36 37 38 39 40 1 4 6 8 9 10 11 12 16 17 20 21 23 24 25 0
27 28 29 30 31 32 33 34 35 36 37 38 39 40 1 4 6 8 9 10 12 13 17 18 20 21 22 23 24 25 26 0
27 28 29 30 31 32 33 34 35 36 37 38 39 40 1 4 6 8 9 10 12 16 17 18 20 21 22 23 24 25 0
27 28 29 30 31 32 33 34 35 36 37 38 39 40 1 4 6 9 11 12 13 17 19 20 21 23 24 25 26 0
27 28 29 30 31 32 33 34 35 36 37 38 39 40 1 4 6 9 11 12 16 17 19 20 21 23 24 25 0
27 28 29 30 31 32 33 34 35 36 37 38 39 40 1 4 6 9 12 13 17 18 19 20 21 22 23 24 25 26 0
27 28 29 30 31 32 33 34 35 36 37 38 39 40 1 4 6 9 12 16 17 18 19 20 21 22 23 24 25 0
27 28 29 30 31 32 33 34 35 36 37 38 39 40 1 6 7 8 9 10 11 12 13 17 21 23 24 25 26 0
27 28 29 30 31 32 33 34 35 36 37 38 39 40 1 6 7 8 9 10 11 12 16 17 20 21 23 24 25 26 0
27 28 29 30 31 32 33 34 35 36 37 38 39 40 1 6 7 8 9 10 12 13 17 18 21 22 23 24 25 26 0
27 28 29 30 31 32 33 34 35 36 37 38 39 40 1 6 7 8 9 10 12 16 17 18 20 21 22 23 24 25 26 0
27 28 29 30 31 32 33 34 35 36 37 38 39 40 1 6 7 9 11 12 13 17 19 21 23 24 25 26 0
27 28 29 30 31 32 33 34 35 36 37 38 39 40 1 6 7 9 11 12 16 17 19 20 21 23 24 25 26 0
27 28 29 30 31 32 33 34 35 36 37 38 39 40 1 6 7 9 12 13 17 18 19 21 22 23 24 25 26 0
27 28 29 30 31 32 33 34 35 36 37 38 39 40 1 6 7 9 12 16 17 18 19 20 21 22 23 24 25 26 0
27 28 29 30 31 32 33 34 35 36 37 38 39 40 2 3 4 7 8 9 10 11 12 13 14 15 16 17 18 21 25 0
27 28 29 30 31 32 33 34 35 36 37 38 39 40 2 3 4 7 8 9 10 11 12 13 14 16 17 18 21 23 25 0
27 28 29 30 31 32 33 34 35 36 37 38 39 40 2 3 4 7 8 9 11 12 13 14 15 16 17 18 19 21 25 0
27 28 29 30 31 32 33 34 35 36 37 38 39 40 2 3 4 7 8 9 11 12 13 14 16 17 18 19 21 23 25 0
27 28 29 30 31 32 33 34 35 36 37 38 39 40 2 3 4 7 8 10 11 12 13 14 15 16 17 21 22 24 25 0
27 28 29 30 31 32 33 34 35 36 37 38 39 40 2 3 4 7 8 10 11 12 13 14 16 17 21 22 23 24 25 0
27 28 29 30 31 32 33 34 35 36 37 38 39 40 2 3 4 7 8 10 12 13 14 15 16 17 18 21 22 25 0
27 28 29 30 31 32 33 34 35 36 37 38 39 40 2 3 4 7 8 10 12 13 14 16 17 18 21 22 23 25 0
27 28 29 30 31 32 33 34 35 36 37 38 39 40 2 3 4 7 8 11 12 13 14 15 16 17 19 21 22 24 25 0
27 28 29 30 31 32 33 34 35 36 37 38 39 40 2 3 4 7 8 11 12 13 14 16 17 19 21 22 23 24 25 0
27 28 29 30 31 32 33 34 35 36 37 38 39 40 2 3 4 7 8 12 13 14 15 16 17 18 19 21 22 25 0
27 28 29 30 31 32 33 34 35 36 37 38 39 40 2 3 4 7 8 12 13 14 16 17 18 19 21 22 23 25 0
27 28 29 30 31 32 33 34 35 36 37 38 39 40 2 3 4 8 9 10 11 12 13 14 15 17 18 20 21 25 26 0
27 28 29 30 31 32 33 34 35 36 37 38 39 40 2 3 4 8 9 10 11 12 13 14 17 18 20 21 23 25 26 0
27 28 29 30 31 32 33 34 35 36 37 38 39 40 2 3 4 8 9 10 11 12 14 15 16 17 18 20 21 25 0
27 28 29 30 31 32 33 34 35 36 37 38 39 40 2 3 4 8 9 10 11 12 14 16 17 18 20 21 23 25 0
27 28 29 30 31 32 33 34 35 36 37 38 39 40 2 3 4 8 9 11 12 13 14 15 17 18 19 20 21 25 26 0
27 28 29 30 31 32 33 34 35 36 37 38 39 40 2 3 4 8 9 11 12 13 14 17 18 19 20 21 23 25 26 0
27 28 29 30 31 32 33 34 35 36 37 38 39 40 2 3 4 8 9 11 12 14 15 16 17 18 19 20 21 25 0
27 28 29 30 31 32 33 34 35 36 37 38 39 40 2 3 4 8 9 11 12 14 16 17 18 19 20 21 23 25 0
27 28 29 30 31 32 33 34 35 36 37 38 39 40 2 3 4 8 10 11 12 13 14 15 17 20 21 22 24 25 26 0
27 28 29 30 31 32 33 34 35 36 37 38 39 40 2 3 4 8 10 11 12 13 14 17 20 21 22 23 24 25 26 0
27 28 29 30 31 32 33 34 35 36 37 38 39 40 2 3 4 8 10 11 12 14 15 16 17 20 21 22 24 25 0
27 28 29 30 31 32 33 34 35 36 37 38 39 40 2 3 4 8 10 11 12 14 16 17 20 21 22 23 24 25 0
27 28 29 30 31 32 33 34 35 36 37 38 39 40 2 3 4 8 10 12 13 14 15 17 18 20 21 22 25 26 0
27 28 29 30 31 32 33 34 35 36 37 38 39 40 2 3 4 8 10 12 13 14 17 18 20 21 22 23 25 26 0
27 28 29 30 31 32 33 34 35 36 37 38 39 40 2 3 4 8 10 12 14 15 16 17 18 20 21 22 25 0
27 28 29 30 31 32 33 34 35 36 37 38 39 40 2 3 4 8 10 12 14 16 17 18 20 21 22 23 25 0
27 28 29 30 31 32 33 34 35 36 37 38 39 40 2 3 4 8 11 12 13 14 15 17 19 20 21 22 24 25 26 0
27 28 29 30 31 32 33 34 35 36 37 38 39 40 2 3 4 8 11 12 13 14 17 19 20 21 22 23 24 25 26 0
27 28 29 30 31 32 33 34 35 36 37 38 39 40 2 3 4 8 11 12 14 15 16 17 19 20 21 22 24 25 0
27 28 29 30 31 32 33 34 35 36 37 38 39 40 2 3 4 8 11 12 14 16 17 19 20 21 22 23 24 25 0
27 28 29 30 31 32 33 34 35 36 37 38 39 40 2 3 4 8 12 13 14 15 17 18 19 20 21 22 25 26 0
27 28 29 30 31 32 33 34 35 36 37 38 39 40 2 3 4 8 12 13 14 17 18 19 20 21 22 23 25 26 0
27 28 29 30 31 32 33 34 35 36 37 38 39 40 2 3 4 8 12 14 15 16 17 18 19 20 21 22 25 0
27 28 29 30 31 32 33 34 35 36 37 38 39 40 2 3 4 8 12 14 16 17 18 19 20 21 22 23 25 0
27 28 29 30 31 32 33 34 35 36 37 38 39 40 2 3 7 8 9 10 11 12 13 14 15 17 18 21 25 26 0
27 28 29 30 31 32 33 34 35 36 37 38 39 40 2 3 7 8 9 10 11 12 13 14 17 18 21 23 25 26 0
27 28 29 30 31 32 33 34 35 36 37 38 39 40 2 3 7 8 9 10 11 12 14 15 16 17 18 20 21 25 26 0
27 28 29 30 31 32 33 34 35 36 37 38 39 40 2 3 7 8 9 10 11 12 14 16 17 18 20 21 23 25 26 0
27 28 29 30 31 32 33 34 35 36 37 38 39 40 2 3 7 8 9 11 12 13 14 15 17 18 19 21 25 26 0
27 28 29 30 31 32 33 34 35 36 37 38 39 40 2 3 7 8 9 11 12 13 14 17 18 19 21 23 25 26 0
27 28 29 30 31 32 33 34 35 36 37 38 39 40 2 3 7 8 9 11 12 14 15 16 17 18 19 20 21 25 26 0
27 28 29 30 31 32 33 34 35 36 37 38 39 40 2 3 7 8 9 11 12 14 16 17 18 19 20 21 23 25 26 0
27 28 29 30 31 32 33 34 35 36 37 38 39 40 2 3 7 8 10 11 12 13 14 15 17 21 22 24 25 26 0
27 28 29 30 31 32 33 34 35 36 37 38 39 40 2 3 7 8 10 11 12 13 14 17 21 22 23 24 25 26 0
27 28 29 30 31 32 33 34 35 36 37 38 39 40 2 3 7 8 10 11 12 14 15 16 17 20 21 22 24 25 26 0
27 28 29 30 31 32 33 34 35 36 37 38 39 40 2 3 7 8 10 11 12 14 16 17 20 21 22 23 24 25 26 0
27 28 29 30 31 32 33 34 35 36 37 38 39 40 2 3 7 8 10 12 13 14 15 17 18 21 22 25 26 0
27 28 29 30 31 32 33 34 35 36 37 38 39 40 2 3 7 8 10 12 13 14 17 18 21 22 23 25 26 0
27 28 29 30 31 32 33 34 35 36 37 38 39 40 2 3 7 8 10 12 14 15 16 17 18 20 21 22 25 26 0
27 28 29 30 31 32 33 34 35 36 37 38 39 40 2 3 7 8 10 12 14 16 17 18 20 21 22 23 25 26 0
27 28 29 30 31 32 33 34 35 36 37 38 39 40 2 3 7 8 11 12 13 14 15 17 19 21 22 24 25 26 0
27 28 29 30 31 32 33 34 35 36 37 38 39 40 2 3 7 8 11 12 13 14 17 19 21 22 23 24 25 26 0
27 28 29 30 31 32 33 34 35 36 37 38 39 40 2 3 7 8 11 12 14 15 16 17 19 20 21 22 24 25 26 0
27 28 29 30 31 32 33 34 35 36 37 38 39 40 2 3 7 8 11 12 14 16 17 19 20 21 22 23 24 25 26 0
27 28 29 30 31 32 33 34 35 36 37 38 39 40 2 3 7 8 12 13 14 15 17 18 19 21 22 25 26 0
27 28 29 30 31 32 33 34 35 36 37 38 39 40 2 3 7 8 12 13 14 17 18 19 21 22 23 25 26 0
27 28 29 30 31 32 33 34 35 36 37 38 39 40 2 3 7 8 12 14 15 16 17 18 19 20 21 22 25 26 0
27 28 29 30 31 32 33 34 35 36 37 38 39 40 2 3 7 8 12 14 16 17 18 19 20 21 22 23 25 26 0
27 28 29 30 31 32 33 34 35 36 37 38 39 40 2 4 6 7 8 9 10 11 12 13 14 16 17 18 21 23 25 0
27 28 29 30 31 32 33 34 35 36 37 38 39 40 2 4 6 7 8 9 11 12 13 14 16 17 18 19 21 23 25 0
27 28 29 30 31 32 33 34 35 36 37 38 39 40 2 4 6 7 8 10 11 12 13 14 16 17 21 22 23 24 25 0
27 28 29 30 31 32 33 34 35 36 37 38 39 40 2 4 6 7 8 10 12 13 14 16 17 18 21 22 23 25 0
27 28 29 30 31 32 33 34 35 36 37 38 39 40 2 4 6 7 8 11 12 13 14 16 17 19 21 22 23 24 25 0
27 28 29 30 31 32 33 34 35 36 37 38 39 40 2 4 6 7 8 12 13 14 16 17 18 19 21 22 23 25 0
27 28 29 30 31 32 33 34 35 36 37 38 39 40 2 4 6 8 9 10 11 12 13 14 17 18 20 21 23 25 26 0
27 28 29 30 31 32 33 34 35 36 37 38 39 40 2 4 6 8 9 10 11 12 14 16 17 18 20 21 23 25 0
27 28 29 30 31 32 33 34 35 36 37 38 39 40 2 4 6 8 9 11 12 13 14 17 18 19 20 21 23 25 26 0
27 28 29 30 31 32 33 34 35 36 37 38 39 40 2 4 6 8 9 11 12 14 16 17 18 19 20 21 23 25 0
27 28 29 30 31 32 33 34 35 36 37 38 39 40 2 4 6 8 10 11 12 13 14 17 20 21 22 23 24 25 26 0
27 28 29 30 31 32 33 34 35 36 37 38 39 40 2 4 6 8 10 11 12 14 16 17 20 21 22 23 24 25 0
27 28 29 30 31 32 33 34 35 36 37 38 39 40 2 4 6 8 10 12 13 14 17 18 20 21 22 23 25 26 0
27 28 29 30 31 32 33 34 35 36 37 38 39 40 2 4 6 8 10 12 14 16 17 18 20 21 22 23 25 0
27 28 29 30 31 32 33 34 35 36 37 38 39 40 2 4 6 8 11 12 13 14 17 19 20 21 22 23 24 25 26 0
27 28 29 30 31 32 33 34 35 36 37 38 39 40 2 4 6 8 11 12 14 16 17 19 20 21 22 23 24 25 0
27 28 29 30 31 32 33 34 35 36 37 38 39 40 2 4 6 8 12 13 14 17 18 19 20 21 22 23 25 26 0
27 28 29 30 31 32 33 34 35 36 37 38 39 40 2 4 6 8 12 14 16 17 18 19 20 21 22 23 25 0
27 28 29 30 31 32 33 34 35 36 37 38 39 40 2 6 7 8 9 10 11 12 13 14 17 18 21 23 25 26 0
27 28 29 30 31 32 33 34 35 36 37 38 39 40 2 6 7 8 9 10 11 12 14 16 17 18 20 21 23 25 26 0
27 28 29 30 31 32 33 34 35 36 37 38 39 40 2 6 7 8 9 11 12 13 14 17 18 19 21 23 25 26 0
27 28 29 30 31 32 33 34 35 36 37 38 39 40 2 6 7 8 9 11 12 14 16 17 18 19 20 21 23 25 26 0
27 28 29 30 31 32 33 34 35 36 37 38 39 40 2 6 7 8 10 11 12 13 14 17 21 22 23 24 25 26 0
27 28 29 30 31 32 33 34 35 36 37 38 39 40 2 6 7 8 10 11 12 14 16 17 20 21 22 23 24 25 26 0
27 28 29 30 31 32 33 34 35 36 37 38 39 40 2 6 7 8 10 12 13 14 17 18 21 22 23 25 26 0
27 28 29 30 31 32 33 34 35 36 37 38 39 40 2 6 7 8 10 12 14 16 17 18 20 21 22 23 25 26 0
27 28 29 30 31 32 33 34 35 36 37 38 39 40 2 6 7 8 11 12 13 14 17 19 21 22 23 24 25 26 0
27 28 29 30 31 32 33 34 35 36 37 38 39 40 2 6 7 8 11 12 14 16 17 19 20 21 22 23 24 25 26 0
27 28 29 30 31 32 33 34 35 36 37 38 39 40 2 6 7 8 12 13 14 17 18 19 21 22 23 25 26 0
27 28 29 30 31 32 33 34 35 36 37 38 39 40 2 6 7 8 12 14 16 17 18 19 20 21 22 23 25 26 0
27 28 29 30 31 32 33 34 35 36 37 38 39 40 3 4 7 8 9 10 11 12 13 14 15 16 17 21 24 25 0
27 28 29 30 31 32 33 34 35 36 37 38 39 40 3 4 7 8 9 10 11 12 13 14 16 17 21 23 24 25 0
27 28 29 30 31 32 33 34 35 36 37 38 39 40 3 4 7 8 9 10 12 13 14 15 16 17 18 21 22 24 25 0
27 28 29 30 31 32 33 34 35 36 37 38 39 40 3 4 7 8 9 10 12 13 14 16 17 18 21 22 23 24 25 0
27 28 29 30 31 32 33 34 35 36 37 38 39 40 3 4 7 8 9 11 12 13 14 15 16 17 19 21 24 25 0
27 28 29 30 31 32 33 34 35 36 37 38 39 40 3 4 7 8 9 11 12 13 14 16 17 19 21 23 24 25 0
27 28 29 30 31 32 33 34 35 36 37 38 39 40 3 4 7 8 9 12 13 14 15 16 17 18 19 21 22 24 25 0
27 28 29 30 31 32 33 34 35 36 37 38 39 40 3 4 7 8 9 12 13 14 16 17 18 19 21 22 23 24 25 0
27 28 29 30 31 32 33 34 35 36 37 38 39 40 3 4 8 9 10 11 12 13 14 15 17 20 21 24 25 26 0
27 28 29 30 31 32 33 34 35 36 37 38 39 40 3 4 8 9 10 11 12 13 14 17 20 21 23 24 25 26 0
27 28 29 30 31 32 33 34 35 36 37 38 39 40 3 4 8 9 10 11 12 14 15 16 17 20 21 24 25 0
27 28 29 30 31 32 33 34 35 36 37 38 39 40 3 4 8 9 10 11 12 14 16 17 20 21 23 24 25 0
27 28 29 30 31 32 33 34 35 36 37 38 39 40 3 4 8 9 10 12 13 14 15 17 18 20 21 22 24 25 26 0
27 28 29 30 31 32 33 34 35 36 37 38 39 40 3 4 8 9 10 12 13 14 17 18 20 21 22 23 24 25 26 0
27 28 29 30 31 32 33 34 35 36 37 38 39 40 3 4 8 9 10 12 14 15 16 17 18 20 21 22 24 25 0
27 28 29 30 31 32 33 34 35 36 37 38 39 40 3 4 8 9 10 12 14 16 17 18 20 21 22 23 24 25 0
27 28 29 30 31 32 33 34 35 36 37 38 39 40 3 4 8 9 11 12 13 14 15 17 19 20 21 24 25 26 0
27 28 29 30 31 32 33 34 35 36 37 38 39 40 3 4 8 9 11 12 13 14 17 19 20 21 23 24 25 26 0
27 28 29 30 31 32 33 34 35 36 37 38 39 40 3 4 8 9 11 12 14 15 16 17 19 20 21 24 25 0
27 28 29 30 31 32 33 34 35 36 37 38 39 40 3 4 8 9 11 12 14 16 17 19 20 21 23 24 25 0
27 28 29 30 31 32 33 34 35 36 37 38 39 40 3 4 8 9 12 13 14 15 17 18 19 20 21 22 24 25 26 0
27 28 29 30 31 32 33 34 35 36 37 38 39 40 3 4 8 9 12 13 14 17 18 19 20 21 22 23 24 25 26 0
27 28 29 30 31 32 33 34 35 36 37 38 39 40 3 4 8 9 12 14 15 16 17 18 19 20 21 22 24 25 0
27 28 29 30 31 32 33 34 35 36 37 38 39 40 3 4 8 9 12 14 16 17 18 19 20 21 22 23 24 25 0
27 28 29 30 31 32 33 34 35 36 37 38 39 40 3 7 8 9 10 11 12 13 14 15 17 21 24 25 26 0
27 28 29 30 31 32 33 34 35 36 37 38 39 40 3 7 8 9 10 11 12 13 14 17 21 23 24 25 26 0
27 28 29 30 31 32 33 34 35 36 37 38 39 40 3 7 8 9 10 11 12 14 15 16 17 20 21 24 25 26 0
27 28 29 30 31 32 33 34 35 36 37 38 39 40 3 7 8 9 10 11 12 14 16 17 20 21 23 24 25 26 0
27 28 29 30 31 32 33 34 35 36 37 38 39 40 3 7 8 9 10 12 13 14 15 17 18 21 22 24 25 26 0
27 28 29 30 31 32 33 34 35 36 37 38 39 40 3 7 8 9 10 12 13 14 17 18 21 22 23 24 25 26 0
27 28 29 30 31 32 33 34 35 36 37 38 39 40 3 7 8 9 10 12 14 15 16 17 18 20 21 22 24 25 26 0
27 28 29 30 31 32 33 34 35 36 37 38 39 40 3 7 8 9 10 12 14 16 17 18 20 21 22 23 24 25 26 0
27 28 29 30 31 32 33 34 35 36 37 38 39 40 3 7 8 9 11 12 13 14 15 17 19 21 24 25 26 0
27 28 29 30 31 32 33 34 35 36 37 38 39 40 3 7 8 9 11 12 13 14 17 19 21 23 24 25 26 0
27 28 29 30 31 32 33 34 35 36 37 38 39 40 3 7 8 9 11 12 14 15 16 17 19 20 21 24 25 26 0
27 28 29 30 31 32 33 34 35 36 37 38 39 40 3 7 8 9 11 12 14 16 17 19 20 21 23 24 25 26 0
27 28 29 30 31 32 33 34 35 36 37 38 39 40 3 7 8 9 12 13 14 15 17 18 19 21 22 24 25 26 0
27 28 29 30 31 32 33 34 35 36 37 38 39 40 3 7 8 9 12 13 14 17 18 19 21 22 23 24 25 26 0
27 28 29 30 31 32 33 34 35 36 37 38 39 40 3 7 8 9 12 14 15 16 17 18 19 20 21 22 24 25 26 0
27 28 29 30 31 32 33 34 35 36 37 38 39 40 3 7 8 9 12 14 16 17 18 19 20 21 22 23 24 25 26 0
27 28 29 30 31 32 33 34 35 36 37 38 39 40 4 6 7 8 9 10 11 12 13 14 16 17 21 23 24 25 0
27 28 29 30 31 32 33 34 35 36 37 38 39 40 4 6 7 8 9 10 12 13 14 16 17 18 21 22 23 24 25 0
27 28 29 30 31 32 33 34 35 36 37 38 39 40 4 6 7 8 9 11 12 13 14 16 17 19 21 23 24 25 0
27 28 29 30 31 32 33 34 35 36 37 38 39 40 4 6 7 8 9 12 13 14 16 17 18 19 21 22 23 24 25 0
27 28 29 30 31 32 33 34 35 36 37 38 39 40 4 6 8 9 10 11 12 13 14 17 20 21 23 24 25 26 0
27 28 29 30 31 32 33 34 35 36 37 38 39 40 4 6 8 9 10 11 12 14 16 17 20 21 23 24 25 0
27 28 29 30 31 32 33 34 35 36 37 38 39 40 4 6 8 9 10 12 13 14 17 18 20 21 22 23 24 25 26 0
27 28 29 30 31 32 33 34 35 36 37 38 39 40 4 6 8 9 10 12 14 16 17 18 20 21 22 23 24 25 0
27 28 29 30 31 32 33 34 35 36 37 38 39 40 4 6 8 9 11 12 13 14 17 19 20 21 23 24 25 26 0
27 28 29 30 31 32 33 34 35 36 37 38 39 40 4 6 8 9 11 12 14 16 17 19 20 21 23 24 25 0
27 28 29 30 31 32 33 34 35 36 37 38 39 40 4 6 8 9 12 13 14 17 18 19 20 21 22 23 24 25 26 0
27 28 29 30 31 32 33 34 35 36 37 38 39 40 4 6 8 9 12 14 16 17 18 19 20 21 22 23 24 25 0
27 28 29 30 31 32 33 34 35 36 37 38 39 40 6 7 8 9 10 11 12 13 14 17 21 23 24 25 26 0
27 28 29 30 31 32 33 34 35 36 37 38 39 40 6 7 8 9 10 11 12 14 16 17 20 21 23 24 25 26 0
27 28 29 30 31 32 33 34 35 36 37 38 39 40 6 7 8 9 10 12 13 14 17 18 21 22 23 24 25 26 0
27 28 29 30 31 32 33 34 35 36 37 38 39 40 6 7 8 9 10 12 14 16 17 18 20 21 22 23 24 25 26 0
27 28 29 30 31 32 33 34 35 36 37 38 39 40 6 7 8 9 11 12 13 14 17 19 21 23 24 25 26 0
27 28 29 30 31 32 33 34 35 36 37 38 39 40 6 7 8 9 11 12 14 16 17 19 20 21 23 24 25 26 0
27 28 29 30 31 32 33 34 35 36 37 38 39 40 6 7 8 9 12 13 14 17 18 19 21 22 23 24 25 26 0
27 28 29 30 31 32 33 34 35 36 37 38 39 40 6 7 8 9 12 14 16 17 18 19 20 21 22 23 24 25 26 0
-27 28 29 30 31 32 33 34 35 36 37 38 39 40 2 4 7 9 11 12 13 14 16 17 18 19 21 23 25 0
-27 28 29 30 31 32 33 34 35 36 37 38 39 40 2 4 7 11 12 13 14 16 17 19 21 22 23 24 25 0
-27 28 29 30 31 32 33 34 35 36 37 38 39 40 2 4 7 12 13 14 16 17 18 19 21 22 23 25 0
-27 28 29 30 31 32 33 34 35 36 37 38 39 40 2 4 9 11 12 13 14 17 18 19 20 21 23 25 26 0
-27 28 29 30 31 32 33 34 35 36 37 38 39 40 2 4 9 11 12 14 16 17 18 19 20 21 23 25 0
-27 28 29 30 31 32 33 34 35 36 37 38 39 40 2 4 11 12 13 14 17 19 20 21 22 23 24 25 26 0
-27 28 29 30 31 32 33 34 35 36 37 38 39 40 2 4 11 12 14 16 17 19 20 21 22 23 24 25 0
-27 28 29 30 31 32 33 34 35 36 37 38 39 40 2 4 12 13 14 17 18 19 20 21 22 23 25 26 0
-27 28 29 30 31 32 33 34 35 36 37 38 39 40 2 4 12 14 16 17 18 19 20 21 22 23 25 0
-27 28 29 30 31 32 33 34 35 36 37 38 39 40 2 7 9 11 12 13 14 17 18 19 21 23 25 26 0
-27 28 29 30 31 32 33 34 35 36 37 38 39 40 2 7 9 11 12 14 16 17 18 19 20 21 23 25 26 0
-27 28 29 30 31 32 33 34 35 36 37 38 39 40 2 7 11 12 13 14 17 19 21 22 23 24 25 26 0
-27 28 29 30 31 32 33 34 35 36 37 38 39 40 2 7 11 12 14 16 17 19 20 21 22 23 24 25 26 0
-27 28 29 30 31 32 33 34 35 36 37 38 39 40 2 7 12 13 14 17 18 19 21 22 23 25 26 0
-27 28 29 30 31 32 33 34 35 36 37 38 39 40 2 7 12 14 16 17 18 19 20 21 22 23 25 26 0
-27 28 29 30 31 32 33 34 35 36 37 38 39 40 4 7 9 11 12 13 14 16 17 19 21 23 24 25 0
-27 28 29 30 31 32 33 34 35 36 37 38 39 40 4 7 9 12 13 14 16 17 18 19 21 22 23 24 25 0
-27 28 29 30 31 32 33 34 35 36 37 38 39 40 4 9 11 12 13 14 17 19 20 21 23 24 25 26 0
-27 28 29 30 31 32 33 34 35 36 37 38 39 40 4 9 11 12 14 16 17 19 20 21 23 24 25 0
-27 28 29 30 31 32 33 34 35 36 37 38 39 40 4 9 12 13 14 17 18 19 20 21 22 23 24 25 26 0
-27 28 29 30 31 32 33 34 35 36 37 38 39 40 4 9 12 14 16 17 18 19 20 21 22 23 24 25 0
-27 28 29 30 31 32 33 34 35 36 37 38 39 40 7 9 11 12 13 14 17 19 21 23 24 25 26 0
-27 28 29 30 31 32 33 34 35 36 37 38 39 40 7 9 11 12 14 16 17 19 20 21 23 24 25 26 0
-27 28 29 30 31 32 33 34 35 36 37 38 39 40 7 9 12 13 14 17 18 19 21 22 23 24 25 26 0
-27 28 29 30 31 32 33 34 35 36 37 38 39 40 7 9 12 14 16 17 18 19 20 21 22 23 24 25 26 0
27 -28 29 30 31 32 33 34 35 36 37 38 39 40 2 3 4 6 7 8 9 10 11 12 13 15 16 17 21 25 0
27 -28 29 30 31 32 33 34 35 36 37 38 39 40 2 3 4 6 7 8 9 11 12 13 15 16 17 19 21 25 0
27 -28 29 30 31 32 33 34 35 36 37 38 39 40 2 3 4 6 7 8 10 11 12 13 15 16 17 21 22 25 0
27 -28 29 30 31 32 33 34 35 36 37 38 39 40 2 3 4 6 7 8 11 12 13 15 16 17 19 21 22 25 0
27 -28 29 30 31 32 33 34 35 36 37 38 39 40 2 3 4 6 8 9 10 11 12 13 15 17 20 21 25 26 0
27 -28 29 30 31 32 33 34 35 36 37 38 39 40 2 3 4 6 8 9 10 11 12 15 16 17 20 21 25 0
27 -28 29 30 31 32 33 34 35 36 37 38 39 40 2 3 4 6 8 9 11 12 13 15 17 19 20 21 25 26 0
27 -28 29 30 31 32 33 34 35 36 37 38 39 40 2 3 4 6 8 9 11 12 15 16 17 19 20 21 25 0
27 -28 29 30 31 32 33 34 35 36 37 38 39 40 2 3 4 6 8 10 11 12 13 15 17 20 21 22 25 26 0
27 -28 29 30 31 32 33 34 35 36 37 38 39 40 2 3 4 6 8 10 11 12 15 16 17 20 21 22 25 0
27 -28 29 30 31 32 33 34 35 36 37 38 39 40 2 3 4 6 8 11 12 13 15 17 19 20 21 22 25 26 0
27 -28 29 30 31 32 33 34 35 36 37 38 39 40 2 3 4 6 8 11 12 15 16 17 19 20 21 22 25 0
27 -28 29 30 31 32 33 34 35 36 37 38 39 40 2 3 6 7 8 9 10 11 12 13 15 17 21 25 26 0
27 -28 29 30 31 32 33 34 35 36 37 38 39 40 2 3 6 7 8 9 10 11 12 15 16 17 20 21 25 26 0
27 -28 29 30 31 32 33 34 35 36 37 38 39 40 2 3 6 7 8 9 11 12 13 15 17 19 21 25 26 0
27 -28 29 30 31 32 33 34 35 36 37 38 39 40 2 3 6 7 8 9 11 12 15 16 17 19 20 21 25 26 0
27 -28 29 30 31 32 33 34 35 36 37 38 39 40 2 3 6 7 8 10 11 12 13 15 17 21 22 25 26 0
27 -28 29 30 31 32 33 34 35 36 37 38 39 40 2 3 6 7 8 10 11 12 15 16 17 20 21 22 25 26 0
27 -28 29 30 31 32 33 34 35 36 37 38 39 40 2 3 6 7 8 11 12 13 15 17 19 21 22 25 26 0
27 -28 29 30 31 32 33 34 35 36 37 38 39 40 2 3 6 7 8 11 12 15 16 17 19 20 21 22 25 26 0
27 -28 29 30 31 32 33 34 35 36 37 38 39 40 2 4 6 7 8 9 10 11 12 13 16 17 21 23 25 0
27 -28 29 30 31 32 33 34 35 36 37 38 39 40 2 4 6 7 8 9 11 12 13 16 17 19 21 23 25 0
27 -28 29 30 31 32 33 34 35 36 37 38 39 40 2 4 6 7 8 10 11 12 13 16 17 21 22 23 25 0
27 -28 29 30 31 32 33 34 35 36 37 38 39 40 2 4 6 7 8 11 12 13 16 17 19 21 22 23 25 0
27 -28 29 30 31 32 33 34 35 36 37 38 39 40 2 4 6 8 9 10 11 12 13 17 20 21 23 25 26 0
27 -28 29 30 31 32 33 34 35 36 37 38 39 40 2 4 6 8 9 10 11 12 16 17 20 21 23 25 0
27 -28 29 30 31 32 33 34 35 36 37 38 39 40 2 4 6 8 9 11 12 13 17 19 20 21 23 25 26 0
27 -28 29 30 31 32 33 34 35 36 37 38 39 40 2 4 6 8 9 11 12 16 17 19 20 21 23 25 0
27 -28 29 30 31 32 33 34 35 36 37 38 39 40 2 4 6 8 10 11 12 13 17 20 21 22 23 25 26 0
27 -28 29 30 31 32 33 34 35 36 37 38 39 40 2 4 6 8 10 11 12 16 17 20 21 22 23 25 0
27 -28 29 30 31 32 33 34 35 36 37 38 39 40 2 4 6 8 11 12 13 17 19 20 21 22 23 25 26 0
27 -28 29 30 31 32 33 34 35 36 37 38 39 40 2 4 6 8 11 12 16 17 19 20 21 22 23 25 0
27 -28 29 30 31 32 33 34 35 36 37 38 39 40 2 6 7 8 9 10 11 12 13 17 21 23 25 26 0
27 -28 29 30 31 32 33 34 35 36 37 38 39 40 2 6 7 8 9 10 11 12 16 17 20 21 23 25 26 0
27 -28 29 30 31 32 33 34 35 36 37 38 39 40 2 6 7 8 9 11 12 13 17 19 21 23 25 26 0
27 -28 29 30 31 32 33 34 35 36 37 38 39 40 2 6 7 8 9 11 12 16 17 19 20 21 23 25 26 0
27 -28 29 30 31 32 33 34 35 36 37 38 39 40 2 6 7 8 10 11 12 13 17 21 22 23 25 26 0
27 -28 29 30 31 32 33 34 35 36 37 38 39 40 2 6 7 8 10 11 12 16 17 20 21 22 23 25 26 0
27 -28 29 30 31 32 33 34 35 36 37 38 39 40 2 6 7 8 11 12 13 17 19 21 22 23 25 26 0
27 -28 29 30 31 32 33 34 35 36 37 38 39 40 2 6 7 8 11 12 16 17 19 20 21 22 23 25 26 0
27 28 -29 30 31 32 33 34 35 36 37 38 39 40 1 3 6 8 10 11 12 13 15 17 20 21 22 24 25 26 0
27 28 -29 30 31 32 33 34 35 36 37 38 39 40 1 3 6 8 10 11 12 15 16 17 20 21 22 24 25 26 0
27 28 -29 30 31 32 33 34 35 36 37 38 39 40 1 3 6 8 10 12 13 15 17 18 20 21 22 24 25 26 0
27 28 -29 30 31 32 33 34 35 36 37 38 39 40 1 3 6 8 10 12 15 16 17 18 20 21 22 24 25 26 0
27 28 -29 30 31 32 33 34 35 36 37 38 39 40 1 3 6 11 12 13 15 17 19 20 21 22 24 25 26 0
27 28 -29 30 31 32 33 34 35 36 37 38 39 40 1 3 6 11 12 15 16 17 19 20 21 22 24 25 26 0
27 28 -29 30 31 32 33 34 35 36 37 38 39 40 1 3 6 12 13 15 17 18 19 20 21 22 24 25 26 0
27 28 -29 30 31 32 33 34 35 36 37 38 39 40 1 3 6 12 15 16 17 18 19 20 21 22 24 25 26 0
27 28 -29 30 31 32 33 34 35 36 37 38 39 40 1 3 11 12 13 14 15 17 19 20 21 22 24 25 26 0
27 28 -29 30 31 32 33 34 35 36 37 38 39 40 1 3 11 12 13 14 17 19 20 21 22 23 24 25 26 0
27 28 -29 30 31 32 33 34 35 36 37 38 39 40 1 3 11 12 14 15 16 17 19 20 21 22 24 25 26 0
27 28 -29 30 31 32 33 34 35 36 37 38 39 40 1 3 11 12 14 16 17 19 20 21 22 23 24 25 26 0
27 28 -29 30 31 32 33 34 35 36 37 38 39 40 1 3 12 13 14 15 17 18 19 20 21 22 24 25 26 0
27 28 -29 30 31 32 33 34 35 36 37 38 39 40 1 3 12 13 14 17 18 19 20 21 22 23 24 25 26 0
27 28 -29 30 31 32 33 34 35 36 37 38 39 40 1 3 12 14 15 16 17 18 19 20 21 22 24 25 26 0
27 28 -29 30 31 32 33 34 35 36 37 38 39 40 1 3 12 14 16 17 18 19 20 21 22 23 24 25 26 0
27 28 -29 30 31 32 33 34 35 36 37 38 39 40 1 6 8 10 11 12 13 17 20 21 22 23 24 25 26 0
27 28 -29 30 31 32 33 34 35 36 37 38 39 40 1 6 8 10 11 12 16 17 20 21 22 23 24 25 26 0
27 28 -29 30 31 32 33 34 35 36 37 38 39 40 1 6 8 10 12 13 17 18 20 21 22 23 24 25 26 0
27 28 -29 30 31 32 33 34 35 36 37 38 39 40 1 6 8 10 12 16 17 18 20 21 22 23 24 25 26 0
27 28 -29 30 31 32 33 34 35 36 37 38 39 40 1 6 11 12 13 17 19 20 21 22 23 24 25 26 0
27 28 -29 30 31 32 33 34 35 36 37 38 39 40 1 6 11 12 16 17 19 20 21 22 23 24 25 26 0
27 28 -29 30 31 32 33 34 35 36 37 38 39 40 1 6 12 13 17 18 19 20 21 22 23 24 25 26 0
27 28 -29 30 31 32 33 34 35 36 37 38 39 40 1 6 12 16 17 18 19 20 21 22 23 24 25 26 0
27 28 -29 30 31 32 33 34 35 36 37 38 39 40 3 8 10 11 12 13 14 15 17 20 21 22 24 25 26 0
27 28 -29 30 31 32 33 34 35 36 37 38 39 40 3 8 10 11 12 13 14 17 20 21 22 23 24 25 26 0
27 28 -29 30 31 32 33 34 35 36 37 38 39 40 3 8 10 11 12 14 15 16 17 20 21 22 24 25 26 0
27 28 -29 30 31 32 33 34 35 36 37 38 39 40 3 8 10 11 12 14 16 17 20 21 22 23 24 25 26 0
27 28 -29 30 31 32 33 34 35 36 37 38 39 40 3 8 10 12 13 14 15 17 18 20 21 22 24 25 26 0
27 28 -29 30 31 32 33 34 35 36 37 38 39 40 3 8 10 12 13 14 17 18 20 21 22 23 24 25 26 0
27 28 -29 30 31 32 33 34 35 36 37 38 39 40 3 8 10 12 14 15 16 17 18 20 21 22 24 25 26 0
27 28 -29 30 31 32 33 34 35 36 37 38 39 40 3 8 10 12 14 16 17 18 20 21 22 23 24 25 26 0
27 28 -29 30 31 32 33 34 35 36 37 38 39 40 3 8 11 12 13 14 15 17 19 20 21 22 24 25 26 0
27 28 -29 30 31 32 33 34 35 36 37 38 39 40 3 8 11 12 13 14 17 19 20 21 22 23 24 25 26 0
27 28 -29 30 31 32 33 34 35 36 37 38 39 40 3 8 11 12 14 15 16 17 19 20 21 22 24 25 26 0
27 28 -29 30 31 32 33 34 35 36 37 38 39 40 3 8 11 12 14 16 17 19 20 21 22 23 24 25 26 0
27 28 -29 30 31 32 33 34 35 36 37 38 39 40 3 8 12 13 14 15 17 18 19 20 21 22 24 25 26 0
27 28 -29 30 31 32 33 34 35 36 37 38 39 40 3 8 12 13 14 17 18 19 20 21 22 23 24 25 26 0
27 28 -29 30 31 32 33 34 35 36 37 38 39 40 3 8 12 14 15 16 17 18 19 20 21 22 24 25 26 0
27 28 -29 30 31 32 33 34 35 36 37 38 39 40 3 8 12 14 16 17 18 19 20 21 22 23 24 25 26 0
27 28 -29 30 31 32 33 34 35 36 37 38 39 40 6 8 10 11 12 13 14 17 20 21 22 23 24 25 26 0
27 28 -29 30 31 32 33 34 35 36 37 38 39 40 6 8 10 11 12 14 16 17 20 21 22 23 24 25 26 0
27 28 -29 30 31 32 33 34 35 36 37 38 39 40 6 8 10 12 13 14 17 18 20 21 22 23 24 25 26 0
27 28 -29 30 31 32 33 34 35 36 37 38 39 40 6 8 10 12 14 16 17 18 20 21 22 23 24 25 26 0
27 28 -29 30 31 32 33 34 35 36 37 38 39 40 6 8 11 12 13 14 17 19 20 21 22 23 24 25 26 0
27 28 -29 30 31 32 33 34 35 36 37 38 39 40 6 8 11 12 14 16 17 19 20 21 22 23 24 25 26 0
27 28 -29 30 31 32 33 34 35 36 37 38 39 40 6 8 12 13 14 17 18 19 20 21 22 23 24 25 26 0
27 28 -29 30 31 32 33 34 35 36 37 38 39 40 6 8 12 14 16 17 18 19 20 21 22 23 24 25 26 0
-27 28 -29 30 31 32 33 34 35 36 37 38 39 40 11 12 13 14 17 19 20 21 22 23 24 25 26 0
-27 28 -29 30 31 32 33 34 35 36 37 38 39 40 11 12 14 16 17 19 20 21 22 23 24 25 26 0
-27 28 -29 30 31 32 33 34 35 36 37 38 39 40 12 13 14 17 18 19 20 21 22 23 24 25 26 0
-27 28 -29 30 31 32 33 34 35 36 37 38 39 40 12 14 16 17 18 19 20 21 22 23 24 25 26 0
27 28 29 -30 31 32 33 34 35 36 37 38 39 40 1 4 6 7 8 9 10 11 12 13 15 16 17 18 21 25 0
27 28 29 -30 31 32 33 34 35 36 37 38 39 40 1 4 6 7 8 9 10 12 13 15 16 17 18 21 22 25 0
27 28 29 -30 31 32 33 34 35 36 37 38 39 40 1 4 6 7 9 11 12 13 15 16 17 18 19 21 25 0
27 28 29 -30 31 32 33 34 35 36 37 38 39 40 1 4 6 7 9 12 13 15 16 17 18 19 21 22 25 0
27 28 29 -30 31 32 33 34 35 36 37 38 39 40 1 4 6 8 9 10 11 12 13 15 17 18 20 21 25 26 0
27 28 29 -30 31 32 33 34 35 36 37 38 39 40 1 4 6 8 9 10 11 12 15 16 17 18 20 21 25 0
27 28 29 -30 31 32 33 34 35 36 37 38 39 40 1 4 6 8 9 10 12 13 15 17 18 20 21 22 25 26 0
27 28 29 -30 31 32 33 34 35 36 37 38 39 40 1 4 6 8 9 10 12 15 16 17 18 20 21 22 25 0
27 28 29 -30 31 32 33 34 35 36 37 38 39 40 1 4 6 9 11 12 13 15 17 18 19 20 21 25 26 0
27 28 29 -30 31 32 33 34 35 36 37 38 39 40 1 4 6 9 11 12 15 16 17 18 19 20 21 25 0
27 28 29 -30 31 32 33 34 35 36 37 38 39 40 1 4 6 9 12 13 15 17 18 19 20 21 22 25 26 0
27 28 29 -30 31 32 33 34 35 36 37 38 39 40 1 4 6 9 12 15 16 17 18 19 20 21 22 25 0
27 28 29 -30 31 32 33 34 35 36 37 38 39 40 1 6 7 8 9 10 11 12 13 15 17 18 21 25 26 0
27 28 29 -30 31 32 33 34 35 36 37 38 39 40 1 6 7 8 9 10 11 12 15 16 17 18 20 21 25 26 0
27 28 29 -30 31 32 33 34 35 36 37 38 39 40 1 6 7 8 9 10 12 13 15 17 18 21 22 25 26 0
27 28 29 -30 31 32 33 34 35 36 37 38 39 40 1 6 7 8 9 10 12 15 16 17 18 20 21 22 25 26 0
27 28 29 -30 31 32 33 34 35 36 37 38 39 40 1 6 7 9 11 12 13 15 17 18 19 21 25 26 0
27 28 29 -30 31 32 33 34 35 36 37 38 39 40 1 6 7 9 11 12 15 16 17 18 19 20 21 25 26 0
27 28 29 -30 31 32 33 34 35 36 37 38 39 40 1 6 7 9 12 13 15 17 18 19 21 22 25 26 0
27 28 29 -30 31 32 33 34 35 36 37 38 39 40 1 6 7 9 12 15 16 17 18 19 20 21 22 25 26 0
27 28 29 -30 31 32 33 34 35 36 37 38 39 40 4 6 7 8 9 10 11 12 13 14 15 16 17 18 21 25 0
27 28 29 -30 31 32 33 34 35 36 37 38 39 40 4 6 7 8 9 10 12 13 14 15 16 17 18 21 22 25 0
27 28 29 -30 31 32 33 34 35 36 37 38 39 40 4 6 7 8 9 11 12 13 14 15 16 17 18 19 21 25 0
27 28 29 -30 31 32 33 34 35 36 37 38 39 40 4 6 7 8 9 12 13 14 15 16 17 18 19 21 22 25 0
27 28 29 -30 31 32 33 34 35 36 37 38 39 40 4 6 8 9 10 11 12 13 14 15 17 18 20 21 25 26 0
27 28 29 -30 31 32 33 34 35 36 37 38 39 40 4 6 8 9 10 11 12 14 15 16 17 18 20 21 25 0
27 28 29 -30 31 32 33 34 35 36 37 38 39 40 4 6 8 9 10 12 13 14 15 17 18 20 21 22 25 26 0
27 28 29 -30 31 32 33 34 35 36 37 38 39 40 4 6 8 9 10 12 14 15 16 17 18 20 21 22 25 0
27 28 29 -30 31 32 33 34 35 36 37 38 39 40 4 6 8 9 11 12 13 14 15 17 18 19 20 21 25 26 0
27 28 29 -30 31 32 33 34 35 36 37 38 39 40 4 6 8 9 11 12 14 15 16 17 18 19 20 21 25 0
27 28 29 -30 31 32 33 34 35 36 37 38 39 40 4 6 8 9 12 13 14 15 17 18 19 20 21 22 25 26 0
27 28 29 -30 31 32 33 34 35 36 37 38 39 40 4 6 8 9 12 14 15 16 17 18 19 20 21 22 25 0
27 28 29 -30 31 32 33 34 35 36 37 38 39 40 6 7 8 9 10 11 12 13 14 15 17 18 21 25 26 0
27 28 29 -30 31 32 33 34 35 36 37 38 39 40 6 7 8 9 10 11 12 14 15 16 17 18 20 21 25 26 0
27 28 29 -30 31 32 33 34 35 36 37 38 39 40 6 7 8 9 10 12 13 14 15 17 18 21 22 25 26 0
27 28 29 -30 31 32 33 34 35 36 37 38 39 40 6 7 8 9 10 12 14 15 16 17 18 20 21 22 25 26 0
27 28 29 -30 31 32 33 34 35 36 37 38 39 40 6 7 8 9 11 12 13 14 15 17 18 19 21 25 26 0
27 28 29 -30 31 32 33 34 35 36 37 38 39 40 6 7 8 9 11 12 14 15 16 17 18 19 20 21 25 26 0
27 28 29 -30 31 32 33 34 35 36 37 38 39 40 6 7 8 9 12 13 14 15 17 18 19 21 22 25 26 0
27 28 29 -30 31 32 33 34 35 36 37 38 39 40 6 7 8 9 12 14 15 16 17 18 19 20 21 22 25 26 0
-27 28 29 -30 31 32 33 34 35 36 37 38 39 40 4 7 9 11 12 13 14 15 16 17 18 19 21 25 0
-27 28 29 -30 31 32 33 34 35 36 37 38 39 40 4 7 9 12 13 14 15 16 17 18 19 21 22 25 0
-27 28 29 -30 31 32 33 34 35 36 37 38 39 40 4 9 11 12 13 14 15 17 18 19 20 21 25 26 0
-27 28 29 -30 31 32 33 34 35 36 37 38 39 40 4 9 11 12 14 15 16 17 18 19 20 21 25 0
-27 28 29 -30 31 32 33 34 35 36 37 38 39 40 4 9 12 13 14 15 17 18 19 20 21 22 25 26 0
-27 28 29 -30 31 32 33 34 35 36 37 38 39 40 4 9 12 14 15 16 17 18 19 20 21 22 25 0
-27 28 29 -30 31 32 33 34 35 36 37 38 39 40 7 9 11 12 13 14 15 17 18 19 21 25 26 0
-27 28 29 -30 31 32 33 34 35 36 37 38 39 40 7 9 11 12 14 15 16 17 18 19 20 21 25 26 0
-27 28 29 -30 31 32 33 34 35 36 37 38 39 40 7 9 12 13 14 15 17 18 19 21 22 25 26 0
-27 28 29 -30 31 32 33 34 35 36 37 38 39 40 7 9 12 14 15 16 17 18 19 20 21 22 25 26 0
27 -28 29 -30 31 32 33 34 35 36 37 38 39 40 4 6 7 8 9 10 11 12 13 15 16 17 21 25 0
27 -28 29 -30 31 32 33 34 35 36 37 38 39 40 4 6 7 8 9 11 12 13 15 16 17 19 21 25 0
27 -28 29 -30 31 32 33 34 35 36 37 38 39 40 4 6 8 9 10 11 12 13 15 17 20 21 25 26 0
27 -28 29 -30 31 32 33 34 35 36 37 38 39 40 4 6 8 9 10 11 12 15 16 17 20 21 25 0
27 -28 29 -30 31 32 33 34 35 36 37 38 39 40 4 6 8 9 11 12 13 15 17 19 20 21 25 26 0
27 -28 29 -30 31 32 33 34 35 36 37 38 39 40 4 6 8 9 11 12 15 16 17 19 20 21 25 0
27 -28 29 -30 31 32 33 34 35 36 37 38 39 40 6 7 8 9 10 11 12 13 15 17 21 25 26 0
27 -28 29 -30 31 32 33 34 35 36 37 38 39 40 6 7 8 9 10 11 12 15 16 17 20 21 25 26 0
27 -28 29 -30 31 32 33 34 35 36 37 38 39 40 6 7 8 9 11 12 13 15 17 19 21 25 26 0
27 -28 29 -30 31 32 33 34 35 36 37 38 39 40 6 7 8 9 11 12 15 16 17 19 20 21 25 26 0
27 28 -29 -30 31 32 33 34 35 36 37 38 39 40 1 6 8 10 12 13 15 17 18 20 21 22 25 26 0
27 28 -29 -30 31 32 33 34 35 36 37 38 39 40 1 6 8 10 12 15 16 17 18 20 21 22 25 26 0
27 28 -29 -30 31 32 33 34 35 36 37 38 39 40 1 6 12 13 15 17 18 19 20 21 22 25 26 0
27 28 -29 -30 31 32 33 34 35 36 37 38 39 40 1 6 12 15 16 17 18 19 20 21 22 25 26 0
27 28 -29 -30 31 32 33 34 35 36 37 38 39 40 6 8 10 12 13 14 15 17 18 20 21 22 25 26 0
27 28 -29 -30 31 32 33 34 35 36 37 38 39 40 6 8 10 12 14 15 16 17 18 20 21 22 25 26 0
27 28 -29 -30 31 32 33 34 35 36 37 38 39 40 6 8 12 13 14 15 17 18 19 20 21 22 25 26 0
27 28 -29 -30 31 32 33 34 35 36 37 38 39 40 6 8 12 14 15 16 17 18 19 20 21 22 25 26 0
-27 28 -29 -30 31 32 33 34 35 36 37 38 39 40 12 13 14 15 17 18 19 20 21 22 25 26 0
-27 28 -29 -30 31 32 33 34 35 36 37 38 39 40 12 14 15 16 17 18 19 20 21 22 25 26 0
27 -28 -29 -30 31 32 33 34 35 36 37 38 39 40 6 8 10 11 12 13 15 17 20 21 22 25 26 0
27 -28 -29 -30 31 32 33 34 35 36 37 38 39 40 6 8 10 11 12 15 16 17 20 21 22 25 26 0
27 -28 -29 -30 31 32 33 34 35 36 37 38 39 40 6 8 11 12 13 15 17 19 20 21 22 25 26 0
27 -28 -29 -30 31 32 33 34 35 36 37 38 39 40 6 8 11 12 15 16 17 19 20 21 22 25 26 0
27 28 29 30 31 32 -33 34 35 36 37 38 39 40 1 2 3 4 7 8 9 10 11 12 15 16 17 18 21 25 0
27 28 29 30 31 32 -33 34 35 36 37 38 39 40 1 2 3 4 7 8 9 10 11 12 16 17 18 21 23 25 0
27 28 29 30 31 32 -33 34 35 36 37 38 39 40 1 2 3 4 7 8 10 11 12 15 16 17 21 22 24 25 0
27 28 29 30 31 32 -33 34 35 36 37 38 39 40 1 2 3 4 7 8 10 11 12 16 17 21 22 23 24 25 0
27 28 29 30 31 32 -33 34 35 36 37 38 39 40 1 2 3 4 7 8 10 12 15 16 17 18 21 22 25 0
27 28 29 30 31 32 -33 34 35 36 37 38 39 40 1 2 3 4 7 8 10 12 16 17 18 21 22 23 25 0
27 28 29 30 31 32 -33 34 35 36 37 38 39 40 1 2 3 4 7 9 11 12 15 16 17 18 19 21 25 0
27 28 29 30 31 32 -33 34 35 36 37 38 39 40 1 2 3 4 7 9 11 12 16 17 18 19 21 23 25 0
27 28 29 30 31 32 -33 34 35 36 37 38 39 40 1 2 3 4 7 11 12 15 16 17 19 21 22 24 25 0
27 28 29 30 31 32 -33 34 35 36 37 38 39 40 1 2 3 4 7 11 12 16 17 19 21 22 23 24 25 0
27 28 29 30 31 32 -33 34 35 36 37 38 39 40 1 2 3 4 7 12 15 16 17 18 19 21 22 25 0
27 28 29 30 31 32 -33 34 35 36 37 38 39 40 1 2 3 4 7 12 16 17 18 19 21 22 23 25 0
27 28 29 30 31 32 -33 34 35 36 37 38 39 40 1 2 3 7 8 9 10 11 12 15 16 17 18 21 25 26 0
27 28 29 30 31 32 -33 34 35 36 37 38 39 40 1 2 3 7 8 9 10 11 12 16 17 18 21 23 25 26 0
27 28 29 30 31 32 -33 34 35 36 37 38 39 40 1 2 3 7 8 10 11 12 15 16 17 21 22 24 25 26 0
27 28 29 30 31 32 -33 34 35 36 37 38 39 40 1 2 3 7 8 10 11 12 16 17 21 22 23 24 25 26 0
27 28 29 30 31 32 -33 34 35 36 37 38 39 40 1 2 3 7 8 10 12 15 16 17 18 21 22 25 26 0
27 28 29 30 31 32 -33 34 35 36 37 38 39 40 1 2 3 7 8 10 12 16 17 18 21 22 23 25 26 0
27 28 29 30 31 32 -33 34 35 36 37 38 39 40 1 2 3 7 9 11 12 15 16 17 18 19 21 25 26 0
27 28 29 30 31 32 -33 34 35 36 37 38 39 40 1 2 3 7 9 11 12 16 17 18 19 21 23 25 26 0
27 28 29 30 31 32 -33 34 35 36 37 38 39 40 1 2 3 7 11 12 15 16 17 19 21 22 24 25 26 0
27 28 29 30 31 32 -33 34 35 36 37 38 39 40 1 2 3 7 11 12 16 17 19 21 22 23 24 25 26 0
27 28 29 30 31 32 -33 34 35 36 37 38 39 40 1 2 3 7 12 15 16 17 18 19 21 22 25 26 0
27 28 29 30 31 32 -33 34 35 36 37 38 39 40 1 2 3 7 12 16 17 18 19 21 22 23 25 26 0
27 28 29 30 31 32 -33 34 35 36 37 38 39 40 1 3 4 7 8 9 10 11 12 15 16 17 21 24 25 0
27 28 29 30 31 32 -33 34 35 36 37 38 39 40 1 3 4 7 8 9 10 11 12 16 17 21 23 24 25 0
27 28 29 30 31 32 -33 34 35 36 37 38 39 40 1 3 4 7 8 9 10 12 15 16 17 18 21 22 24 25 0
27 28 29 30 31 32 -33 34 35 36 37 38 39 40 1 3 4 7 8 9 10 12 16 17 18 21 22 23 24 25 0
27 28 29 30 31 32 -33 34 35 36 37 38 39 40 1 3 4 7 9 11 12 15 16 17 19 21 24 25 0
27 28 29 30 31 32 -33 34 35 36 37 38 39 40 1 3 4 7 9 11 12 16 17 19 21 23 24 25 0
27 28 29 30 31 32 -33 34 35 36 37 38 39 40 1 3 4 7 9 12 15 16 17 18 19 21 22 24 25 0
27 28 29 30 31 32 -33 34 35 36 37 38 39 40 1 3 4 7 9 12 16 17 18 19 21 22 23 24 25 0
27 28 29 30 31 32 -33 34 35 36 37 38 39 40 1 3 7 8 9 10 11 12 15 16 17 21 24 25 26 0
27 28 29 30 31 32 -33 34 35 36 37 38 39 40 1 3 7 8 9 10 11 12 16 17 21 23 24 25 26 0
27 28 29 30 31 32 -33 34 35 36 37 38 39 40 1 3 7 8 9 10 12 15 16 17 18 21 22 24 25 26 0
27 28 29 30 31 32 -33 34 35 36 37 38 39 40 1 3 7 8 9 10 12 16 17 18 21 22 23 24 25 26 0
27 28 29 30 31 32 -33 34 35 36 37 38 39 40 1 3 7 9 11 12 15 16 17 19 21 24 25 26 0
27 28 29 30 31 32 -33 34 35 36 37 38 39 40 1 3 7 9 11 12 16 17 19 21 23 24 25 26 0
27 28 29 30 31 32 -33 34 35 36 37 38 39 40 1 3 7 9 12 15 16 17 18 19 21 22 24 25 26 0
27 28 29 30 31 32 -33 34 35 36 37 38 39 40 1 3 7 9 12 16 17 18 19 21 22 23 24 25 26 0
27 -28 29 30 31 32 -33 34 35 36 37 38 39 40 2 3 4 7 8 9 10 11 12 15 16 17 21 25 0
27 -28 29 30 31 32 -33 34 35 36 37 38 39 40 2 3 4 7 8 9 10 11 12 16 17 21 23 25 0
27 -28 29 30 31 32 -33 34 35 36 37 38 39 40 2 3 4 7 8 9 11 12 15 16 17 19 21 25 0
27 -28 29 30 31 32 -33 34 35 36 37 38 39 40 2 3 4 7 8 9 11 12 16 17 19 21 23 25 0
27 -28 29 30 31 32 -33 34 35 36 37 38 39 40 2 3 4 7 8 10 11 12 15 16 17 21 22 25 0
27 -28 29 30 31 32 -33 34 35 36 37 38 39 40 2 3 4 7 8 10 11 12 16 17 21 22 23 25 0
27 -28 29 30 31 32 -33 34 35 36 37 38 39 40 2 3 4 7 8 11 12 15 16 17 19 21 22 25 0
27 -28 29 30 31 32 -33 34 35 36 37 38 39 40 2 3 4 7 8 11 12 16 17 19 21 22 23 25 0
27 -28 29 30 31 32 -33 34 35 36 37 38 39 40 2 3 7 8 9 10 11 12 15 16 17 21 25 26 0
27 -28 29 30 31 32 -33 34 35 36 37 38 39 40 2 3 7 8 9 10 11 12 16 17 21 23 25 26 0
27 -28 29 30 31 32 -33 34 35 36 37 38 39 40 2 3 7 8 9 11 12 15 16 17 19 21 25 26 0
27 -28 29 30 31 32 -33 34 35 36 37 38 39 40 2 3 7 8 9 11 12 16 17 19 21 23 25 26 0
27 -28 29 30 31 32 -33 34 35 36 37 38 39 40 2 3 7 8 10 11 12 15 16 17 21 22 25 26 0
27 -28 29 30 31 32 -33 34 35 36 37 38 39 40 2 3 7 8 10 11 12 16 17 21 22 23 25 26 0
27 -28 29 30 31 32 -33 34 35 36 37 38 39 40 2 3 7 8 11 12 15 16 17 19 21 22 25 26 0
27 -28 29 30 31 32 -33 34 35 36 37 38 39 40 2 3 7 8 11 12 16 17 19 21 22 23 25 26 0
-27 -28 29 30 31 32 -33 34 35 36 37 38 39 40 2 4 7 9 11 12 16 17 19 21 23 25 0
-27 -28 29 30 31 32 -33 34 35 36 37 38 39 40 2 4 7 11 12 16 17 19 21 22 23 25 0
-27 -28 29 30 31 32 -33 34 35 36 37 38 39 40 2 7 9 11 12 16 17 19 21 23 25 26 0
-27 -28 29 30 31 32 -33 34 35 36 37 38 39 40 2 7 11 12 16 17 19 21 22 23 25 26 0
-27 -28 29 -30 31 32 -33 34 35 36 37 38 39 40 4 7 9 11 12 15 16 17 19 21 25 0
-27 -28 29 -30 31 32 -33 34 35 36 37 38 39 40 7 9 11 12 15 16 17 19 21 25 26 0
27 28 29 30 31 32 33 -34 35 36 37 38 39 40 1 2 3 4 6 9 10 11 12 13 15 16 17 18 21 25 0
27 28 29 30 31 32 33 -34 35 36 37 38 39 40 1 2 3 4 6 9 10 11 12 13 15 17 18 21 25 26 0
27 28 29 30 31 32 33 -34 35 36 37 38 39 40 1 2 3 4 6 10 11 12 13 15 16 17 21 22 24 25 0
27 28 29 30 31 32 33 -34 35 36 37 38 39 40 1 2 3 4 6 10 11 12 13 15 17 21 22 24 25 26 0
27 28 29 30 31 32 33 -34 35 36 37 38 39 40 1 2 3 4 6 10 12 13 15 16 17 18 21 22 25 0
27 28 29 30 31 32 33 -34 35 36 37 38 39 40 1 2 3 4 6 10 12 13 15 17 18 21 22 25 26 0
27 28 29 30 31 32 33 -34 35 36 37 38 39 40 1 2 3 4 9 10 11 12 13 14 15 16 17 18 21 25 0
27 28 29 30 31 32 33 -34 35 36 37 38 39 40 1 2 3 4 9 10 11 12 13 14 15 17 18 21 25 26 0
27 28 29 30 31 32 33 -34 35 36 37 38 39 40 1 2 3 4 9 10 11 12 13 14 16 17 18 21 23 25 0
27 28 29 30 31 32 33 -34 35 36 37 38 39 40 1 2 3 4 9 10 11 12 13 14 17 18 21 23 25 26 0
27 28 29 30 31 32 33 -34 35 36 37 38 39 40 1 2 3 4 10 11 12 13 14 15 16 17 21 22 24 25 0
27 28 29 30 31 32 33 -34 35 36 37 38 39 40 1 2 3 4 10 11 12 13 14 15 17 21 22 24 25 26 0
27 28 29 30 31 32 33 -34 35 36 37 38 39 40 1 2 3 4 10 11 12 13 14 16 17 21 22 23 24 25 0
27 28 29 30 31 32 33 -34 35 36 37 38 39 40 1 2 3 4 10 11 12 13 14 17 21 22 23 24 25 26 0
27 28 29 30 31 32 33 -34 35 36 37 38 39 40 1 2 3 4 10 12 13 14 15 16 17 18 21 22 25 0
27 28 29 30 31 32 33 -34 35 36 37 38 39 40 1 2 3 4 10 12 13 14 15 17 18 21 22 25 26 0
27 28 29 30 31 32 33 -34 35 36 37 38 39 40 1 2 3 4 10 12 13 14 16 17 18 21 22 23 25 0
27 28 29 30 31 32 33 -34 35 36 37 38 39 40 1 2 3 4 10 12 13 14 17 18 21 22 23 25 26 0
27 28 29 30 31 32 33 -34 35 36 37 38 39 40 1 2 4 6 9 10 11 12 13 16 17 18 21 23 25 0
27 28 29 30 31 32 33 -34 35 36 37 38 39 40 1 2 4 6 9 10 11 12 13 17 18 21 23 25 26 0
27 28 29 30 31 32 33 -34 35 36 37 38 39 40 1 2 4 6 10 11 12 13 16 17 21 22 23 24 25 0
27 28 29 30 31 32 33 -34 35 36 37 38 39 40 1 2 4 6 10 11 12 13 17 21 22 23 24 25 26 0
27 28 29 30 31 32 33 -34 35 36 37 38 39 40 1 2 4 6 10 12 13 16 17 18 21 22 23 25 0
27 28 29 30 31 32 33 -34 35 36 37 38 39 40 1 2 4 6 10 12 13 17 18 21 22 23 25 26 0
27 28 29 30 31 32 33 -34 35 36 37 38 39 40 1 3 4 6 9 10 11 12 13 15 16 17 21 24 25 0
27 28 29 30 31 32 33 -34 35 36 37 38 39 40 1 3 4 6 9 10 11 12 13 15 17 21 24 25 26 0
27 28 29 30 31 32 33 -34 35 36 37 38 39 40 1 3 4 6 9 10 12 13 15 16 17 18 21 22 24 25 0
27 28 29 30 31 32 33 -34 35 36 37 38 39 40 1 3 4 6 9 10 12 13 15 17 18 21 22 24 25 26 0
27 28 29 30 31 32 33 -34 35 36 37 38 39 40 1 3 4 9 10 11 12 13 14 15 16 17 21 24 25 0
27 28 29 30 31 32 33 -34 35 36 37 38 39 40 1 3 4 9 10 11 12 13 14 15 17 21 24 25 26 0
27 28 29 30 31 32 33 -34 35 36 37 38 39 40 1 3 4 9 10 11 12 13 14 16 17 21 23 24 25 0
27 28 29 30 31 32 33 -34 35 36 37 38 39 40 1 3 4 9 10 11 12 13 14 17 21 23 24 25 26 0
27 28 29 30 31 32 33 -34 35 36 37 38 39 40 1 3 4 9 10 12 13 14 15 16 17 18 21 22 24 25 0
27 28 29 30 31 32 33 -34 35 36 37 38 39 40 1 3 4 9 10 12 13 14 15 17 18 21 22 24 25 26 0
27 28 29 30 31 32 33 -34 35 36 37 38 39 40 1 3 4 9 10 12 13 14 16 17 18 21 22 23 24 25 0
27 28 29 30 31 32 33 -34 35 36 37 38 39 40 1 3 4 9 10 12 13 14 17 18 21 22 23 24 25 26 0
27 28 29 30 31 32 33 -34 35 36 37 38 39 40 1 4 6 9 10 11 12 13 16 17 21 23 24 25 0
27 28 29 30 31 32 33 -34 35 36 37 38 39 40 1 4 6 9 10 11 12 13 17 21 23 24 25 26 0
27 28 29 30 31 32 33 -34 35 36 37 38 39 40 1 4 6 9 10 12 13 16 17 18 21 22 23 24 25 0
27 28 29 30 31 32 33 -34 35 36 37 38 39 40 1 4 6 9 10 12 13 17 18 21 22 23 24 25 26 0
-27 28 29 30 31 32 33 -34 35 36 37 38 39 40 2 4 9 10 11 12 13 14 16 17 18 21 23 25 0
-27 28 29 30 31 32 33 -34 35 36 37 38 39 40 2 4 9 10 11 12 13 14 17 18 21 23 25 26 0
-27 28 29 30 31 32 33 -34 35 36 37 38 39 40 2 4 10 11 12 13 14 16 17 21 22 23 24 25 0
-27 28 29 30 31 32 33 -34 35 36 37 38 39 40 2 4 10 11 12 13 14 17 21 22 23 24 25 26 0
-27 28 29 30 31 32 33 -34 35 36 37 38 39 40 2 4 10 12 13 14 16 17 18 21 22 23 25 0
-27 28 29 30 31 32 33 -34 35 36 37 38 39 40 2 4 10 12 13 14 17 18 21 22 23 25 26 0
-27 28 29 30 31 32 33 -34 35 36 37 38 39 40 4 9 10 11 12 13 14 16 17 21 23 24 25 0
-27 28 29 30 31 32 33 -34 35 36 37 38 39 40 4 9 10 11 12 13 14 17 21 23 24 25 26 0
-27 28 29 30 31 32 33 -34 35 36 37 38 39 40 4 9 10 12 13 14 16 17 18 21 22 23 24 25 0
-27 28 29 30 31 32 33 -34 35 36 37 38 39 40 4 9 10 12 13 14 17 18 21 22 23 24 25 26 0
27 28 -29 30 31 32 33 -34 35 36 37 38 39 40 1 3 6 10 11 12 13 15 17 21 22 24 25 26 0
27 28 -29 30 31 32 33 -34 35 36 37 38 39 40 1 3 6 10 12 13 15 17 18 21 22 24 25 26 0
27 28 -29 30 31 32 33 -34 35 36 37 38 39 40 1 3 10 11 12 13 14 15 17 21 22 24 25 26 0
27 28 -29 30 31 32 33 -34 35 36 37 38 39 40 1 3 10 11 12 13 14 17 21 22 23 24 25 26 0
27 28 -29 30 31 32 33 -34 35 36 37 38 39 40 1 3 10 12 13 14 15 17 18 21 22 24 25 26 0
27 28 -29 30 31 32 33 -34 35 36 37 38 39 40 1 3 10 12 13 14 17 18 21 22 23 24 25 26 0
27 28 -29 30 31 32 33 -34 35 36 37 38 39 40 1 6 10 11 12 13 17 21 22 23 24 25 26 0
27 28 -29 30 31 32 33 -34 35 36 37 38 39 40 1 6 10 12 13 17 18 21 22 23 24 25 26 0
-27 28 -29 30 31 32 33 -34 35 36 37 38 39 40 10 11 12 13 14 17 21 22 23 24 25 26 0
-27 28 -29 30 31 32 33 -34 35 36 37 38 39 40 10 12 13 14 17 18 21 22 23 24 25 26 0
27 28 29 -30 31 32 33 -34 35 36 37 38 39 40 1 4 6 9 10 11 12 13 15 16 17 18 21 25 0
27 28 29 -30 31 32 33 -34 35 36 37 38 39 40 1 4 6 9 10 11 12 13 15 17 18 21 25 26 0
27 28 29 -30 31 32 33 -34 35 36 37 38 39 40 1 4 6 9 10 12 13 15 16 17 18 21 22 25 0
27 28 29 -30 31 32 33 -34 35 36 37 38 39 40 1 4 6 9 10 12 13 15 17 18 21 22 25 26 0
-27 28 29 -30 31 32 33 -34 35 36 37 38 39 40 4 9 10 11 12 13 14 15 16 17 18 21 25 0
-27 28 29 -30 31 32 33 -34 35 36 37 38 39 40 4 9 10 11 12 13 14 15 17 18 21 25 26 0
-27 28 29 -30 31 32 33 -34 35 36 37 38 39 40 4 9 10 12 13 14 15 16 17 18 21 22 25 0
-27 28 29 -30 31 32 33 -34 35 36 37 38 39 40 4 9 10 12 13 14 15 17 18 21 22 25 26 0
27 28 -29 -30 31 32 33 -34 35 36 37 38 39 40 1 6 10 12 13 15 17 18 21 22 25 26 0
-27 28 -29 -30 31 32 33 -34 35 36 37 38 39 40 10 12 13 14 15 17 18 21 22 25 26 0
27 28 29 30 31 32 -33 -34 35 36 37 38 39 40 1 2 3 4 9 10 11 12 15 16 17 18 21 25 0
27 28 29 30 31 32 -33 -34 35 36 37 38 39 40 1 2 3 4 9 10 11 12 16 17 18 21 23 25 0
27 28 29 30 31 32 -33 -34 35 36 37 38 39 40 1 2 3 4 10 11 12 15 16 17 21 22 24 25 0
27 28 29 30 31 32 -33 -34 35 36 37 38 39 40 1 2 3 4 10 11 12 16 17 21 22 23 24 25 0
27 28 29 30 31 32 -33 -34 35 36 37 38 39 40 1 2 3 4 10 12 15 16 17 18 21 22 25 0
27 28 29 30 31 32 -33 -34 35 36 37 38 39 40 1 2 3 4 10 12 16 17 18 21 22 23 25 0
27 28 29 30 31 32 -33 -34 35 36 37 38 39 40 1 3 4 9 10 11 12 15 16 17 21 24 25 0
27 28 29 30 31 32 -33 -34 35 36 37 38 39 40 1 3 4 9 10 11 12 16 17 21 23 24 25 0
27 28 29 30 31 32 -33 -34 35 36 37 38 39 40 1 3 4 9 10 12 15 16 17 18 21 22 24 25 0
27 28 29 30 31 32 -33 -34 35 36 37 38 39 40 1 3 4 9 10 12 16 17 18 21 22 23 24 25 0
-27 -28 29 30 31 32 -33 -34 35 36 37 38 39 40 2 4 9 10 11 12 16 17 21 23 25 0
-27 -28 29 30 31 32 -33 -34 35 36 37 38 39 40 2 4 10 11 12 16 17 21 22 23 25 0
27 28 -29 30 31 32 -33 -34 35 36 37 38 39 40 1 3 10 11 12 15 16 17 21 22 24 25 26 0
27 28 -29 30 31 32 -33 -34 35 36 37 38 39 40 1 3 10 11 12 16 17 21 22 23 24 25 26 0
27 28 -29 30 31 32 -33 -34 35 36 37 38 39 40 1 3 10 12 15 16 17 18 21 22 24 25 26 0
27 28 -29 30 31 32 -33 -34 35 36 37 38 39 40 1 3 10 12 16 17 18 21 22 23 24 25 26 0
-27 -28 29 -30 31 32 -33 -34 35 36 37 38 39 40 4 9 10 11 12 15 16 17 21 25 0
-27 -28 -29 -30 31 32 -33 -34 35 36 37 38 39 40 10 11 12 15 16 17 21 22 25 26 0
27 28 29 30 31 32 33 34 35 -36 37 38 39 40 1 2 3 4 5 6 7 8 9 11 12 13 15 16 17 18 25 0
27 28 29 30 31 32 33 34 35 -36 37 38 39 40 1 2 3 4 5 6 7 8 11 12 13 15 16 17 22 24 25 0
27 28 29 30 31 32 33 34 35 -36 37 38 39 40 1 2 3 4 5 6 7 8 12 13 15 16 17 18 22 25 0
27 28 29 30 31 32 33 34 35 -36 37 38 39 40 1 2 3 4 5 6 8 9 11 12 13 15 17 18 20 25 26 0
27 28 29 30 31 32 33 34 35 -36 37 38 39 40 1 2 3 4 5 6 8 9 11 12 15 16 17 18 20 25 0
27 28 29 30 31 32 33 34 35 -36 37 38 39 40 1 2 3 4 5 6 8 11 12 13 15 17 20 22 24 25 26 0
27 28 29 30 31 32 33 34 35 -36 37 38 39 40 1 2 3 4 5 6 8 11 12 15 16 17 20 22 24 25 0
27 28 29 30 31 32 33 34 35 -36 37 38 39 40 1 2 3 4 5 6 8 12 13 15 17 18 20 22 25 26 0
27 28 29 30 31 32 33 34 35 -36 37 38 39 40 1 2 3 4 5 6 8 12 15 16 17 18 20 22 25 0
27 28 29 30 31 32 33 34 35 -36 37 38 39 40 1 2 3 5 6 7 8 9 11 12 13 15 17 18 25 26 0
27 28 29 30 31 32 33 34 35 -36 37 38 39 40 1 2 3 5 6 7 8 9 11 12 15 16 17 18 20 25 26 0
27 28 29 30 31 32 33 34 35 -36 37 38 39 40 1 2 3 5 6 7 8 11 12 13 15 17 22 24 25 26 0
27 28 29 30 31 32 33 34 35 -36 37 38 39 40 1 2 3 5 6 7 8 11 12 15 16 17 20 22 24 25 26 0
27 28 29 30 31 32 33 34 35 -36 37 38 39 40 1 2 3 5 6 7 8 12 13 15 17 18 22 25 26 0
27 28 29 30 31 32 33 34 35 -36 37 38 39 40 1 2 3 5 6 7 8 12 15 16 17 18 20 22 25 26 0
27 28 29 30 31 32 33 34 35 -36 37 38 39 40 1 2 4 5 6 7 8 9 11 12 13 16 17 18 23 25 0
27 28 29 30 31 32 33 34 35 -36 37 38 39 40 1 2 4 5 6 7 8 11 12 13 16 17 22 23 24 25 0
27 28 29 30 31 32 33 34 35 -36 37 38 39 40 1 2 4 5 6 7 8 12 13 16 17 18 22 23 25 0
27 28 29 30 31 32 33 34 35 -36 37 38 39 40 1 2 4 5 6 8 9 11 12 13 17 18 20 23 25 26 0
27 28 29 30 31 32 33 34 35 -36 37 38 39 40 1 2 4 5 6 8 9 11 12 16 17 18 20 23 25 0
27 28 29 30 31 32 33 34 35 -36 37 38 39 40 1 2 4 5 6 8 11 12 13 17 20 22 23 24 25 26 0
27 28 29 30 31 32 33 34 35 -36 37 38 39 40 1 2 4 5 6 8 11 12 16 17 20 22 23 24 25 0
27 28 29 30 31 32 33 34 35 -36 37 38 39 40 1 2 4 5 6 8 12 13 17 18 20 22 23 25 26 0
27 28 29 30 31 32 33 34 35 -36 37 38 39 40 1 2 4 5 6 8 12 16 17 18 20 22 23 25 0
27 28 29 30 31 32 33 34 35 -36 37 38 39 40 1 2 5 6 7 8 9 11 12 13 17 18 23 25 26 0
27 28 29 30 31 32 33 34 35 -36 37 38 39 40 1 2 5 6 7 8 9 11 12 16 17 18 20 23 25 26 0
27 28 29 30 31 32 33 34 35 -36 37 38 39 40 1 2 5 6 7 8 11 12 13 17 22 23 24 25 26 0
27 28 29 30 31 32 33 34 35 -36 37 38 39 40 1 2 5 6 7 8 11 12 16 17 20 22 23 24 25 26 0
27 28 29 30 31 32 33 34 35 -36 37 38 39 40 1 2 5 6 7 8 12 13 17 18 22 23 25 26 0
27 28 29 30 31 32 33 34 35 -36 37 38 39 40 1 2 5 6 7 8 12 16 17 18 20 22 23 25 26 0
27 28 29 30 31 32 33 34 35 -36 37 38 39 40 1 3 4 5 6 7 8 9 11 12 13 15 16 17 24 25 0
27 28 29 30 31 32 33 34 35 -36 37 38 39 40 1 3 4 5 6 7 8 9 12 13 15 16 17 18 22 24 25 0
27 28 29 30 31 32 33 34 35 -36 37 38 39 40 1 3 4 5 6 8 9 11 12 13 15 17 20 24 25 26 0
27 28 29 30 31 32 33 34 35 -36 37 38 39 40 1 3 4 5 6 8 9 11 12 15 16 17 20 24 25 0
27 28 29 30 31 32 33 34 35 -36 37 38 39 40 1 3 4 5 6 8 9 12 13 15 17 18 20 22 24 25 26 0
27 28 29 30 31 32 33 34 35 -36 37 38 39 40 1 3 4 5 6 8 9 12 15 16 17 18 20 22 24 25 0
27 28 29 30 31 32 33 34 35 -36 37 38 39 40 1 3 5 6 7 8 9 11 12 13 15 17 24 25 26 0
27 28 29 30 31 32 33 34 35 -36 37 38 39 40 1 3 5 6 7 8 9 11 12 15 16 17 20 24 25 26 0
27 28 29 30 31 32 33 34 35 -36 37 38 39 40 1 3 5 6 7 8 9 12 13 15 17 18 22 24 25 26 0
27 28 29 30 31 32 33 34 35 -36 37 38 39 40 1 3 5 6 7 8 9 12 15 16 17 18 20 22 24 25 26 0
27 28 29 30 31 32 33 34 35 -36 37 38 39 40 1 4 5 6 7 8 9 11 12 13 16 17 23 24 25 0
27 28 29 30 31 32 33 34 35 -36 37 38 39 40 1 4 5 6 7 8 9 12 13 16 17 18 22 23 24 25 0
27 28 29 30 31 32 33 34 35 -36 37 38 39 40 1 4 5 6 8 9 11 12 13 17 20 23 24 25 26 0
27 28 29 30 31 32 33 34 35 -36 37 38 39 40 1 4 5 6 8 9 11 12 16 17 20 23 24 25 0
27 28 29 30 31 32 33 34 35 -36 37 38 39 40 1 4 5 6 8 9 12 13 17 18 20 22 23 24 25 26 0
27 28 29 30 31 32 33 34 35 -36 37 38 39 40 1 4 5 6 8 9 12 16 17 18 20 22 23 24 25 0
27 28 29 30 31 32 33 34 35 -36 37 38 39 40 1 5 6 7 8 9 11 12 13 17 23 24 25 26 0
27 28 29 30 31 32 33 34 35 -36 37 38 39 40 1 5 6 7 8 9 11 12 16 17 20 23 24 25 26 0
27 28 29 30 31 32 33 34 35 -36 37 38 39 40 1 5 6 7 8 9 12 13 17 18 22 23 24 25 26 0
27 28 29 30 31 32 33 34 35 -36 37 38 39 40 1 5 6 7 8 9 12 16 17 18 20 22 23 24 25 26 0
27 28 29 30 31 32 33 34 35 -36 37 38 39 40 2 3 4 5 7 8 9 11 12 13 14 15 16 17 18 25 0
27 28 29 30 31 32 33 34 35 -36 37 38 39 40 2 3 4 5 7 8 9 11 12 13 14 16 17 18 23 25 0
27 28 29 30 31 32 33 34 35 -36 37 38 39 40 2 3 4 5 7 8 11 12 13 14 15 16 17 22 24 25 0
27 28 29 30 31 32 33 34 35 -36 37 38 39 40 2 3 4 5 7 8 11 12 13 14 16 17 22 23 24 25 0
27 28 29 30 31 32 33 34 35 -36 37 38 39 40 2 3 4 5 7 8 12 13 14 15 16 17 18 22 25 0
27 28 29 30 31 32 33 34 35 -36 37 38 39 40 2 3 4 5 7 8 12 13 14 16 17 18 22 23 25 0
27 28 29 30 31 32 33 34 35 -36 37 38 39 40 2 3 4 5 8 9 11 12 13 14 15 17 18 20 25 26 0
27 28 29 30 31 32 33 34 35 -36 37 38 39 40 2 3 4 5 8 9 11 12 13 14 17 18 20 23 25 26 0
27 28 29 30 31 32 33 34 35 -36 37 38 39 40 2 3 4 5 8 9 11 12 14 15 16 17 18 20 25 0
27 28 29 30 31 32 33 34 35 -36 37 38 39 40 2 3 4 5 8 9 11 12 14 16 17 18 20 23 25 0
27 28 29 30 31 32 33 34 35 -36 37 38 39 40 2 3 4 5 8 11 12 13 14 15 17 20 22 24 25 26 0
27 28 29 30 31 32 33 34 35 -36 37 38 39 40 2 3 4 5 8 11 12 13 14 17 20 22 23 24 25 26 0
27 28 29 30 31 32 33 34 35 -36 37 38 39 40 2 3 4 5 8 11 12 14 15 16 17 20 22 24 25 0
27 28 29 30 31 32 33 34 35 -36 37 38 39 40 2 3 4 5 8 11 12 14 16 17 20 22 23 24 25 0
27 28 29 30 31 32 33 34 35 -36 37 38 39 40 2 3 4 5 8 12 13 14 15 17 18 20 22 25 26 0
27 28 29 30 31 32 33 34 35 -36 37 38 39 40 2 3 4 5 8 12 13 14 17 18 20 22 23 25 26 0
27 28 29 30 31 32 33 34 35 -36 37 38 39 40 2 3 4 5 8 12 14 15 16 17 18 20 22 25 0
27 28 29 30 31 32 33 34 35 -36 37 38 39 40 2 3 4 5 8 12 14 16 17 18 20 22 23 25 0
27 28 29 30 31 32 33 34 35 -36 37 38 39 40 2 3 5 7 8 9 11 12 13 14 15 17 18 25 26 0
27 28 29 30 31 32 33 34 35 -36 37 38 39 40 2 3 5 7 8 9 11 12 13 14 17 18 23 25 26 0
27 28 29 30 31 32 33 34 35 -36 37 38 39 40 2 3 5 7 8 9 11 12 14 15 16 17 18 20 25 26 0
27 28 29 30 31 32 33 34 35 -36 37 38 39 40 2 3 5 7 8 9 11 12 14 16 17 18 20 23 25 26 0
27 28 29 30 31 32 33 34 35 -36 37 38 39 40 2 3 5 7 8 11 12 13 14 15 17 22 24 25 26 0
27 28 29 30 31 32 33 34 35 -36 37 38 39 40 2 3 5 7 8 11 12 13 14 17 22 23 24 25 26 0
27 28 29 30 31 32 33 34 35 -36 37 38 39 40 2 3 5 7 8 11 12 14 15 16 17 20 22 24 25 26 0
27 28 29 30 31 32 33 34 35 -36 37 38 39 40 2 3 5 7 8 11 12 14 16 17 20 22 23 24 25 26 0
27 28 29 30 31 32 33 34 35 -36 37 38 39 40 2 3 5 7 8 12 13 14 15 17 18 22 25 26 0
27 28 29 30 31 32 33 34 35 -36 37 38 39 40 2 3 5 7 8 12 13 14 17 18 22 23 25 26 0
27 28 29 30 31 32 33 34 35 -36 37 38 39 40 2 3 5 7 8 12 14 15 16 17 18 20 22 25 26 0
27 28 29 30 31 32 33 34 35 -36 37 38 39 40 2 3 5 7 8 12 14 16 17 18 20 22 23 25 26 0
27 28 29 30 31 32 33 34 35 -36 37 38 39 40 2 4 5 6 7 8 9 11 12 13 14 16 17 18 23 25 0
27 28 29 30 31 32 33 34 35 -36 37 38 39 40 2 4 5 6 7 8 11 12 13 14 16 17 22 23 24 25 0
27 28 29 30 31 32 33 34 35 -36 37 38 39 40 2 4 5 6 7 8 12 13 14 16 17 18 22 23 25 0
27 28 29 30 31 32 33 34 35 -36 37 38 39 40 2 4 5 6 8 9 11 12 13 14 17 18 20 23 25 26 0
27 28 29 30 31 32 33 34 35 -36 37 38 39 40 2 4 5 6 8 9 11 12 14 16 17 18 20 23 25 0
27 28 29 30 31 32 33 34 35 -36 37 38 39 40 2 4 5 6 8 11 12 13 14 17 20 22 23 24 25 26 0
27 28 29 30 31 32 33 34 35 -36 37 38 39 40 2 4 5 6 8 11 12 14 16 17 20 22 23 24 25 0
27 28 29 30 31 32 33 34 35 -36 37 38 39 40 2 4 5 6 8 12 13 14 17 18 20 22 23 25 26 0
27 28 29 30 31 32 33 34 35 -36 37 38 39 40 2 4 5 6 8 12 14 16 17 18 20 22 23 25 0
27 28 29 30 31 32 33 34 35 -36 37 38 39 40 2 5 6 7 8 9 11 12 13 14 17 18 23 25 26 0
27 28 29 30 31 32 33 34 35 -36 37 38 39 40 2 5 6 7 8 9 11 12 14 16 17 18 20 23 25 26 0
27 28 29 30 31 32 33 34 35 -36 37 38 39 40 2 5 6 7 8 11 12 13 14 17 22 23 24 25 26 0
27 28 29 30 31 32 33 34 35 -36 37 38 39 40 2 5 6 7 8 11 12 14 16 17 20 22 23 24 25 26 0
27 28 29 30 31 32 33 34 35 -36 37 38 39 40 2 5 6 7 8 12 13 14 17 18 22 23 25 26 0
27 28 29 30 31 32 33 34 35 -36 37 38 39 40 2 5 6 7 8 12 14 16 17 18 20 22 23 25 26 0
27 28 29 30 31 32 33 34 35 -36 37 38 39 40 3 4 5 7 8 9 11 12 13 14 15 16 17 24 25 0
27 28 29 30 31 32 33 34 35 -36 37 38 39 40 3 4 5 7 8 9 11 12 13 14 16 17 23 24 25 0
27 28 29 30 31 32 33 34 35 -36 37 38 39 40 3 4 5 7 8 9 12 13 14 15 16 17 18 22 24 25 0
27 28 29 30 31 32 33 34 35 -36 37 38 39 40 3 4 5 7 8 9 12 13 14 16 17 18 22 23 24 25 0
27 28 29 30 31 32 33 34 35 -36 37 38 39 40 3 4 5 8 9 11 12 13 14 15 17 20 24 25 26 0
27 28 29 30 31 32 33 34 35 -36 37 38 39 40 3 4 5 8 9 11 12 13 14 17 20 23 24 25 26 0
27 28 29 30 31 32 33 34 35 -36 37 38 39 40 3 4 5 8 9 11 12 14 15 16 17 20 24 25 0
27 28 29 30 31 32 33 34 35 -36 37 38 39 40 3 4 5 8 9 11 12 14 16 17 20 23 24 25 0
27 28 29 30 31 32 33 34 35 -36 37 38 39 40 3 4 5 8 9 12 13 14 15 17 18 20 22 24 25 26 0
27 28 29 30 31 32 33 34 35 -36 37 38 39 40 3 4 5 8 9 12 13 14 17 18 20 22 23 24 25 26 0
27 28 29 30 31 32 33 34 35 -36 37 38 39 40 3 4 5 8 9 12 14 15 16 17 18 20 22 24 25 0
27 28 29 30 31 32 33 34 35 -36 37 38 39 40 3 4 5 8 9 12 14 16 17 18 20 22 23 24 25 0
27 28 29 30 31 32 33 34 35 -36 37 38 39 40 3 5 7 8 9 11 12 13 14 15 17 24 25 26 0
27 28 29 30 31 32 33 34 35 -36 37 38 39 40 3 5 7 8 9 11 12 13 14 17 23 24 25 26 0
27 28 29 30 31 32 33 34 35 -36 37 38 39 40 3 5 7 8 9 11 12 14 15 16 17 20 24 25 26 0
27 28 29 30 31 32 33 34 35 -36 37 38 39 40 3 5 7 8 9 11 12 14 16 17 20 23 24 25 26 0
27 28 29 30 31 32 33 34 35 -36 37 38 39 40 3 5 7 8 9 12 13 14 15 17 18 22 24 25 26 0
27 28 29 30 31 32 33 34 35 -36 37 38 39 40 3 5 7 8 9 12 13 14 17 18 22 23 24 25 26 0
27 28 29 30 31 32 33 34 35 -36 37 38 39 40 3 5 7 8 9 12 14 15 16 17 18 20 22 24 25 26 0
27 28 29 30 31 32 33 34 35 -36 37 38 39 40 3 5 7 8 9 12 14 16 17 18 20 22 23 24 25 26 0
27 28 29 30 31 32 33 34 35 -36 37 38 39 40 4 5 6 7 8 9 11 12 13 14 16 17 23 24 25 0
27 28 29 30 31 32 33 34 35 -36 37 38 39 40 4 5 6 7 8 9 12 13 14 16 17 18 22 23 24 25 0
27 28 29 30 31 32 33 34 35 -36 37 38 39 40 4 5 6 8 9 11 12 13 14 17 20 23 24 25 26 0
27 28 29 30 31 32 33 34 35 -36 37 38 39 40 4 5 6 8 9 11 12 14 16 17 20 23 24 25 0
27 28 29 30 31 32 33 34 35 -36 37 38 39 40 4 5 6 8 9 12 13 14 17 18 20 22 23 24 25 26 0
27 28 29 30 31 32 33 34 35 -36 37 38 39 40 4 5 6 8 9 12 14 16 17 18 20 22 23 24 25 0
27 28 29 30 31 32 33 34 35 -36 37 38 39 40 5 6 7 8 9 11 12 13 14 17 23 24 25 26 0
27 28 29 30 31 32 33 34 35 -36 37 38 39 40 5 6 7 8 9 11 12 14 16 17 20 23 24 25 26 0
27 28 29 30 31 32 33 34 35 -36 37 38 39 40 5 6 7 8 9 12 13 14 17 18 22 23 24 25 26 0
27 28 29 30 31 32 33 34 35 -36 37 38 39 40 5 6 7 8 9 12 14 16 17 18 20 22 23 24 25 26 0
27 -28 29 30 31 32 33 34 35 -36 37 38 39 40 2 3 4 5 6 7 8 9 11 12 13 15 16 17 25 0
27 -28 29 30 31 32 33 34 35 -36 37 38 39 40 2 3 4 5 6 7 8 11 12 13 15 16 17 22 25 0
27 -28 29 30 31 32 33 34 35 -36 37 38 39 40 2 3 4 5 6 8 9 11 12 13 15 17 20 25 26 0
27 -28 29 30 31 32 33 34 35 -36 37 38 39 40 2 3 4 5 6 8 9 11 12 15 16 17 20 25 0
27 -28 29 30 31 32 33 34 35 -36 37 38 39 40 2 3 4 5 6 8 11 12 13 15 17 20 22 25 26 0
27 -28 29 30 31 32 33 34 35 -36 37 38 39 40 2 3 4 5 6 8 11 12 15 16 17 20 22 25 0
27 -28 29 30 31 32 33 34 35 -36 37 38 39 40 2 3 5 6 7 8 9 11 12 13 15 17 25 26 0
27 -28 29 30 31 32 33 34 35 -36 37 38 39 40 2 3 5 6 7 8 9 11 12 15 16 17 20 25 26 0
27 -28 29 30 31 32 33 34 35 -36 37 38 39 40 2 3 5 6 7 8 11 12 13 15 17 22 25 26 0
27 -28 29 30 31 32 33 34 35 -36 37 38 39 40 2 3 5 6 7 8 11 12 15 16 17 20 22 25 26 0
27 -28 29 30 31 32 33 34 35 -36 37 38 39 40 2 4 5 6 7 8 9 11 12 13 16 17 23 25 0
27 -28 29 30 31 32 33 34 35 -36 37 38 39 40 2 4 5 6 7 8 11 12 13 16 17 22 23 25 0
27 -28 29 30 31 32 33 34 35 -36 37 38 39 40 2 4 5 6 8 9 11 12 13 17 20 23 25 26 0
27 -28 29 30 31 32 33 34 35 -36 37 38 39 40 2 4 5 6 8 9 11 12 16 17 20 23 25 0
27 -28 29 30 31 32 33 34 35 -36 37 38 39 40 2 4 5 6 8 11 12 13 17 20 22 23 25 26 0
27 -28 29 30 31 32 33 34 35 -36 37 38 39 40 2 4 5 6 8 11 12 16 17 20 22 23 25 0
27 -28 29 30 31 32 33 34 35 -36 37 38 39 40 2 5 6 7 8 9 11 12 13 17 23 25 26 0
27 -28 29 30 31 32 33 34 35 -36 37 38 39 40 2 5 6 7 8 9 11 12 16 17 20 23 25 26 0
27 -28 29 30 31 32 33 34 35 -36 37 38 39 40 2 5 6 7 8 11 12 13 17 22 23 25 26 0
27 -28 29 30 31 32 33 34 35 -36 37 38 39 40 2 5 6 7 8 11 12 16 17 20 22 23 25 26 0
27 28 -29 30 31 32 33 34 35 -36 37 38 39 40 1 3 5 6 8 11 12 13 15 17 20 22 24 25 26 0
27 28 -29 30 31 32 33 34 35 -36 37 38 39 40 1 3 5 6 8 11 12 15 16 17 20 22 24 25 26 0
27 28 -29 30 31 32 33 34 35 -36 37 38 39 40 1 3 5 6 8 12 13 15 17 18 20 22 24 25 26 0
27 28 -29 30 31 32 33 34 35 -36 37 38 39 40 1 3 5 6 8 12 15 16 17 18 20 22 24 25 26 0
27 28 -29 30 31 32 33 34 35 -36 37 38 39 40 1 5 6 8 11 12 13 17 20 22 23 24 25 26 0
27 28 -29 30 31 32 33 34 35 -36 37 38 39 40 1 5 6 8 11 12 16 17 20 22 23 24 25 26 0
27 28 -29 30 31 32 33 34 35 -36 37 38 39 40 1 5 6 8 12 13 17 18 20 22 23 24 25 26 0
27 28 -29 30 31 32 33 34 35 -36 37 38 39 40 1 5 6 8 12 16 17 18 20 22 23 24 25 26 0
27 28 -29 30 31 32 33 34 35 -36 37 38 39 40 3 5 8 11 12 13 14 15 17 20 22 24 25 26 0
27 28 -29 30 31 32 33 34 35 -36 37 38 39 40 3 5 8 11 12 13 14 17 20 22 23 24 25 26 0
27 28 -29 30 31 32 33 34 35 -36 37 38 39 40 3 5 8 11 12 14 15 16 17 20 22 24 25 26 0
27 28 -29 30 31 32 33 34 35 -36 37 38 39 40 3 5 8 11 12 14 16 17 20 22 23 24 25 26 0
27 28 -29 30 31 32 33 34 35 -36 37 38 39 40 3 5 8 12 13 14 15 17 18 20 22 24 25 26 0
27 28 -29 30 31 32 33 34 35 -36 37 38 39 40 3 5 8 12 13 14 17 18 20 22 23 24 25 26 0
27 28 -29 30 31 32 33 34 35 -36 37 38 39 40 3 5 8 12 14 15 16 17 18 20 22 24 25 26 0
27 28 -29 30 31 32 33 34 35 -36 37 38 39 40 3 5 8 12 14 16 17 18 20 22 23 24 25 26 0
27 28 -29 30 31 32 33 34 35 -36 37 38 39 40 5 6 8 11 12 13 14 17 20 22 23 24 25 26 0
27 28 -29 30 31 32 33 34 35 -36 37 38 39 40 5 6 8 11 12 14 16 17 20 22 23 24 25 26 0
27 28 -29 30 31 32 33 34 35 -36 37 38 39 40 5 6 8 12 13 14 17 18 20 22 23 24 25 26 0
27 28 -29 30 31 32 33 34 35 -36 37 38 39 40 5 6 8 12 14 16 17 18 20 22 23 24 25 26 0
27 28 29 -30 31 32 33 34 35 -36 37 38 39 40 1 4 5 6 7 8 9 11 12 13 15 16 17 18 25 0
27 28 29 -30 31 32 33 34 35 -36 37 38 39 40 1 4 5 6 7 8 9 12 13 15 16 17 18 22 25 0
27 28 29 -30 31 32 33 34 35 -36 37 38 39 40 1 4 5 6 8 9 11 12 13 15 17 18 20 25 26 0
27 28 29 -30 31 32 33 34 35 -36 37 38 39 40 1 4 5 6 8 9 11 12 15 16 17 18 20 25 0
27 28 29 -30 31 32 33 34 35 -36 37 38 39 40 1 4 5 6 8 9 12 13 15 17 18 20 22 25 26 0
27 28 29 -30 31 32 33 34 35 -36 37 38 39 40 1 4 5 6 8 9 12 15 16 17 18 20 22 25 0
27 28 29 -30 31 32 33 34 35 -36 37 38 39 40 1 5 6 7 8 9 11 12 13 15 17 18 25 26 0
27 28 29 -30 31 32 33 34 35 -36 37 38 39 40 1 5 6 7 8 9 11 12 15 16 17 18 20 25 26 0
27 28 29 -30 31 32 33 34 35 -36 37 38 39 40 1 5 6 7 8 9 12 13 15 17 18 22 25 26 0
27 28 29 -30 31 32 33 34 35 -36 37 38 39 40 1 5 6 7 8 9 12 15 16 17 18 20 22 25 26 0
27 28 29 -30 31 32 33 34 35 -36 37 38 39 40 4 5 6 7 8 9 11 12 13 14 15 16 17 18 25 0
27 28 29 -30 31 32 33 34 35 -36 37 38 39 40 4 5 6 7 8 9 12 13 14 15 16 17 18 22 25 0
27 28 29 -30 31 32 33 34 35 -36 37 38 39 40 4 5 6 8 9 11 12 13 14 15 17 18 20 25 26 0
27 28 29 -30 31 32 33 34 35 -36 37 38 39 40 4 5 6 8 9 11 12 14 15 16 17 18 20 25 0
27 28 29 -30 31 32 33 34 35 -36 37 38 39 40 4 5 6 8 9 12 13 14 15 17 18 20 22 25 26 0
27 28 29 -30 31 32 33 34 35 -36 37 38 39 40 4 5 6 8 9 12 14 15 16 17 18 20 22 25 0
27 28 29 -30 31 32 33 34 35 -36 37 38 39 40 5 6 7 8 9 11 12 13 14 15 17 18 25 26 0
27 28 29 -30 31 32 33 34 35 -36 37 38 39 40 5 6 7 8 9 11 12 14 15 16 17 18 20 25 26 0
27 28 29 -30 31 32 33 34 35 -36 37 38 39 40 5 6 7 8 9 12 13 14 15 17 18 22 25 26 0
27 28 29 -30 31 32 33 34 35 -36 37 38 39 40 5 6 7 8 9 12 14 15 16 17 18 20 22 25 26 0
27 -28 29 -30 31 32 33 34 35 -36 37 38 39 40 4 5 6 7 8 9 11 12 13 15 16 17 25 0
27 -28 29 -30 31 32 33 34 35 -36 37 38 39 40 4 5 6 8 9 11 12 13 15 17 20 25 26 0
27 -28 29 -30 31 32 33 34 35 -36 37 38 39 40 4 5 6 8 9 11 12 15 16 17 20 25 0
27 -28 29 -30 31 32 33 34 35 -36 37 38 39 40 5 6 7 8 9 11 12 13 15 17 25 26 0
27 -28 29 -30 31 32 33 34 35 -36 37 38 39 40 5 6 7 8 9 11 12 15 16 17 20 25 26 0
27 28 -29 -30 31 32 33 34 35 -36 37 38 39 40 1 5 6 8 12 13 15 17 18 20 22 25 26 0
27 28 -29 -30 31 32 33 34 35 -36 37 38 39 40 1 5 6 8 12 15 16 17 18 20 22 25 26 0
27 28 -29 -30 31 32 33 34 35 -36 37 38 39 40 5 6 8 12 13 14 15 17 18 20 22 25 26 0
27 28 -29 -30 31 32 33 34 35 -36 37 38 39 40 5 6 8 12 14 15 16 17 18 20 22 25 26 0
27 -28 -29 -30 31 32 33 34 35 -36 37 38 39 40 5 6 8 11 12 13 15 17 20 22 25 26 0
27 -28 -29 -30 31 32 33 34 35 -36 37 38 39 40 5 6 8 11 12 15 16 17 20 22 25 26 0
27 28 29 30 31 -32 33 34 35 -36 37 38 39 40 1 2 3 4 6 7 8 11 12 13 15 16 17 18 25 0
27 28 29 30 31 -32 33 34 35 -36 37 38 39 40 1 2 3 4 6 7 8 11 12 13 15 16 17 24 25 0
27 28 29 30 31 -32 33 34 35 -36 37 38 39 40 1 2 3 4 6 8 11 12 13 15 17 18 20 25 26 0
27 28 29 30 31 -32 33 34 35 -36 37 38 39 40 1 2 3 4 6 8 11 12 13 15 17 20 24 25 26 0
27 28 29 30 31 -32 33 34 35 -36 37 38 39 40 1 2 3 4 6 8 11 12 15 16 17 18 20 25 0
27 28 29 30 31 -32 33 34 35 -36 37 38 39 40 1 2 3 4 6 8 11 12 15 16 17 20 24 25 0
27 28 29 30 31 -32 33 34 35 -36 37 38 39 40 1 2 3 6 7 8 11 12 13 15 17 18 25 26 0
27 28 29 30 31 -32 33 34 35 -36 37 38 39 40 1 2 3 6 7 8 11 12 13 15 17 24 25 26 0
27 28 29 30 31 -32 33 34 35 -36 37 38 39 40 1 2 3 6 7 8 11 12 15 16 17 18 20 25 26 0
27 28 29 30 31 -32 33 34 35 -36 37 38 39 40 1 2 3 6 7 8 11 12 15 16 17 20 24 25 26 0
27 28 29 30 31 -32 33 34 35 -36 37 38 39 40 1 2 4 6 7 8 11 12 13 16 17 18 23 25 0
27 28 29 30 31 -32 33 34 35 -36 37 38 39 40 1 2 4 6 7 8 11 12 13 16 17 23 24 25 0
27 28 29 30 31 -32 33 34 35 -36 37 38 39 40 1 2 4 6 8 11 12 13 17 18 20 23 25 26 0
27 28 29 30 31 -32 33 34 35 -36 37 38 39 40 1 2 4 6 8 11 12 13 17 20 23 24 25 26 0
27 28 29 30 31 -32 33 34 35 -36 37 38 39 40 1 2 4 6 8 11 12 16 17 18 20 23 25 0
27 28 29 30 31 -32 33 34 35 -36 37 38 39 40 1 2 4 6 8 11 12 16 17 20 23 24 25 0
27 28 29 30 31 -32 33 34 35 -36 37 38 39 40 1 2 6 7 8 11 12 13 17 18 23 25 26 0
27 28 29 30 31 -32 33 34 35 -36 37 38 39 40 1 2 6 7 8 11 12 13 17 23 24 25 26 0
27 28 29 30 31 -32 33 34 35 -36 37 38 39 40 1 2 6 7 8 11 12 16 17 18 20 23 25 26 0
27 28 29 30 31 -32 33 34 35 -36 37 38 39 40 1 2 6 7 8 11 12 16 17 20 23 24 25 26 0
27 28 29 30 31 -32 33 34 35 -36 37 38 39 40 2 3 4 7 8 11 12 13 14 15 16 17 18 25 0
27 28 29 30 31 -32 33 34 35 -36 37 38 39 40 2 3 4 7 8 11 12 13 14 15 16 17 24 25 0
27 28 29 30 31 -32 33 34 35 -36 37 38 39 40 2 3 4 7 8 11 12 13 14 16 17 18 23 25 0
27 28 29 30 31 -32 33 34 35 -36 37 38 39 40 2 3 4 7 8 11 12 13 14 16 17 23 24 25 0
27 28 29 30 31 -32 33 34 35 -36 37 38 39 40 2 3 4 8 11 12 13 14 15 17 18 20 25 26 0
27 28 29 30 31 -32 33 34 35 -36 37 38 39 40 2 3 4 8 11 12 13 14 15 17 20 24 25 26 0
27 28 29 30 31 -32 33 34 35 -36 37 38 39 40 2 3 4 8 11 12 13 14 17 18 20 23 25 26 0
27 28 29 30 31 -32 33 34 35 -36 37 38 39 40 2 3 4 8 11 12 13 14 17 20 23 24 25 26 0
27 28 29 30 31 -32 33 34 35 -36 37 38 39 40 2 3 4 8 11 12 14 15 16 17 18 20 25 0
27 28 29 30 31 -32 33 34 35 -36 37 38 39 40 2 3 4 8 11 12 14 15 16 17 20 24 25 0
27 28 29 30 31 -32 33 34 35 -36 37 38 39 40 2 3 4 8 11 12 14 16 17 18 20 23 25 0
27 28 29 30 31 -32 33 34 35 -36 37 38 39 40 2 3 4 8 11 12 14 16 17 20 23 24 25 0
27 28 29 30 31 -32 33 34 35 -36 37 38 39 40 2 3 7 8 11 12 13 14 15 17 18 25 26 0
27 28 29 30 31 -32 33 34 35 -36 37 38 39 40 2 3 7 8 11 12 13 14 15 17 24 25 26 0
27 28 29 30 31 -32 33 34 35 -36 37 38 39 40 2 3 7 8 11 12 13 14 17 18 23 25 26 0
27 28 29 30 31 -32 33 34 35 -36 37 38 39 40 2 3 7 8 11 12 13 14 17 23 24 25 26 0
27 28 29 30 31 -32 33 34 35 -36 37 38 39 40 2 3 7 8 11 12 14 15 16 17 18 20 25 26 0
27 28 29 30 31 -32 33 34 35 -36 37 38 39 40 2 3 7 8 11 12 14 15 16 17 20 24 25 26 0
27 28 29 30 31 -32 33 34 35 -36 37 38 39 40 2 3 7 8 11 12 14 16 17 18 20 23 25 26 0
27 28 29 30 31 -32 33 34 35 -36 37 38 39 40 2 3 7 8 11 12 14 16 17 20 23 24 25 26 0
27 28 29 30 31 -32 33 34 35 -36 37 38 39 40 2 4 6 7 8 11 12 13 14 16 17 18 23 25 0
27 28 29 30 31 -32 33 34 35 -36 37 38 39 40 2 4 6 7 8 11 12 13 14 16 17 23 24 25 0
27 28 29 30 31 -32 33 34 35 -36 37 38 39 40 2 4 6 8 11 12 13 14 17 18 20 23 25 26 0
27 28 29 30 31 -32 33 34 35 -36 37 38 39 40 2 4 6 8 11 12 13 14 17 20 23 24 25 26 0
27 28 29 30 31 -32 33 34 35 -36 37 38 39 40 2 4 6 8 11 12 14 16 17 18 20 23 25 0
27 28 29 30 31 -32 33 34 35 -36 37 38 39 40 2 4 6 8 11 12 14 16 17 20 23 24 25 0
27 28 29 30 31 -32 33 34 35 -36 37 38 39 40 2 6 7 8 11 12 13 14 17 18 23 25 26 0
27 28 29 30 31 -32 33 34 35 -36 37 38 39 40 2 6 7 8 11 12 13 14 17 23 24 25 26 0
27 28 29 30 31 -32 33 34 35 -36 37 38 39 40 2 6 7 8 11 12 14 16 17 18 20 23 25 26 0
27 28 29 30 31 -32 33 34 35 -36 37 38 39 40 2 6 7 8 11 12 14 16 17 20 23 24 25 26 0
27 -28 29 30 31 -32 33 34 35 -36 37 38 39 40 2 3 4 6 7 8 11 12 13 15 16 17 25 0
27 -28 29 30 31 -32 33 34 35 -36 37 38 39 40 2 3 4 6 8 11 12 13 15 17 20 25 26 0
27 -28 29 30 31 -32 33 34 35 -36 37 38 39 40 2 3 4 6 8 11 12 15 16 17 20 25 0
27 -28 29 30 31 -32 33 34 35 -36 37 38 39 40 2 3 6 7 8 11 12 13 15 17 25 26 0
27 -28 29 30 31 -32 33 34 35 -36 37 38 39 40 2 3 6 7 8 11 12 15 16 17 20 25 26 0
27 -28 29 30 31 -32 33 34 35 -36 37 38 39 40 2 4 6 7 8 11 12 13 16 17 23 25 0
27 -28 29 30 31 -32 33 34 35 -36 37 38 39 40 2 4 6 8 11 12 13 17 20 23 25 26 0
27 -28 29 30 31 -32 33 34 35 -36 37 38 39 40 2 4 6 8 11 12 16 17 20 23 25 0
27 -28 29 30 31 -32 33 34 35 -36 37 38 39 40 2 6 7 8 11 12 13 17 23 25 26 0
27 -28 29 30 31 -32 33 34 35 -36 37 38 39 40 2 6 7 8 11 12 16 17 20 23 25 26 0
27 28 -29 30 31 -32 33 34 35 -36 37 38 39 40 1 3 6 8 11 12 13 15 17 20 24 25 26 0
27 28 -29 30 31 -32 33 34 35 -36 37 38 39 40 1 3 6 8 11 12 15 16 17 20 24 25 26 0
27 28 -29 30 31 -32 33 34 35 -36 37 38 39 40 1 6 8 11 12 13 17 20 23 24 25 26 0
27 28 -29 30 31 -32 33 34 35 -36 37 38 39 40 1 6 8 11 12 16 17 20 23 24 25 26 0
27 28 -29 30 31 -32 33 34 35 -36 37 38 39 40 3 8 11 12 13 14 15 17 20 24 25 26 0
27 28 -29 30 31 -32 33 34 35 -36 37 38 39 40 3 8 11 12 13 14 17 20 23 24 25 26 0
27 28 -29 30 31 -32 33 34 35 -36 37 38 39 40 3 8 11 12 14 15 16 17 20 24 25 26 0
27 28 -29 30 31 -32 33 34 35 -36 37 38 39 40 3 8 11 12 14 16 17 20 23 24 25 26 0
27 28 -29 30 31 -32 33 34 35 -36 37 38 39 40 6 8 11 12 13 14 17 20 23 24 25 26 0
27 28 -29 30 31 -32 33 34 35 -36 37 38 39 40 6 8 11 12 14 16 17 20 23 24 25 26 0
27 28 -29 -30 31 -32 33 34 35 -36 37 38 39 40 1 6 8 11 12 13 15 17 18 20 25 26 0
27 28 -29 -30 31 -32 33 34 35 -36 37 38 39 40 1 6 8 11 12 15 16 17 18 20 25 26 0
27 28 -29 -30 31 -32 33 34 35 -36 37 38 39 40 6 8 11 12 13 14 15 17 18 20 25 26 0
27 28 -29 -30 31 -32 33 34 35 -36 37 38 39 40 6 8 11 12 14 15 16 17 18 20 25 26 0
27 -28 -29 -30 31 -32 33 34 35 -36 37 38 39 40 6 8 11 12 13 15 17 20 25 26 0
27 -28 -29 -30 31 -32 33 34 35 -36 37 38 39 40 6 8 11 12 15 16 17 20 25 26 0
27 28 29 30 31 32 -33 34 35 -36 37 38 39 40 1 2 3 4 5 7 8 9 11 12 15 16 17 18 25 0
27 28 29 30 31 32 -33 34 35 -36 37 38 39 40 1 2 3 4 5 7 8 9 11 12 16 17 18 23 25 0
27 28 29 30 31 32 -33 34 35 -36 37 38 39 40 1 2 3 4 5 7 8 11 12 15 16 17 22 24 25 0
27 28 29 30 31 32 -33 34 35 -36 37 38 39 40 1 2 3 4 5 7 8 11 12 16 17 22 23 24 25 0
27 28 29 30 31 32 -33 34 35 -36 37 38 39 40 1 2 3 4 5 7 8 12 15 16 17 18 22 25 0
27 28 29 30 31 32 -33 34 35 -36 37 38 39 40 1 2 3 4 5 7 8 12 16 17 18 22 23 25 0
27 28 29 30 31 32 -33 34 35 -36 37 38 39 40 1 2 3 5 7 8 9 11 12 15 16 17 18 25 26 0
27 28 29 30 31 32 -33 34 35 -36 37 38 39 40 1 2 3 5 7 8 9 11 12 16 17 18 23 25 26 0
27 28 29 30 31 32 -33 34 35 -36 37 38 39 40 1 2 3 5 7 8 11 12 15 16 17 22 24 25 26 0
27 28 29 30 31 32 -33 34 35 -36 37 38 39 40 1 2 3 5 7 8 11 12 16 17 22 23 24 25 26 0
27 28 29 30 31 32 -33 34 35 -36 37 38 39 40 1 2 3 5 7 8 12 15 16 17 18 22 25 26 0
27 28 29 30 31 32 -33 34 35 -36 37 38 39 40 1 2 3 5 7 8 12 16 17 18 22 23 25 26 0
27 28 29 30 31 32 -33 34 35 -36 37 38 39 40 1 3 4 5 7 8 9 11 12 15 16 17 24 25 0
27 28 29 30 31 32 -33 34 35 -36 37 38 39 40 1 3 4 5 7 8 9 11 12 16 17 23 24 25 0
27 28 29 30 31 32 -33 34 35 -36 37 38 39 40 1 3 4 5 7 8 9 12 15 16 17 18 22 24 25 0
27 28 29 30 31 32 -33 34 35 -36 37 38 39 40 1 3 4 5 7 8 9 12 16 17 18 22 23 24 25 0
27 28 29 30 31 32 -33 34 35 -36 37 38 39 40 1 3 5 7 8 9 11 12 15 16 17 24 25 26 0
27 28 29 30 31 32 -33 34 35 -36 37 38 39 40 1 3 5 7 8 9 11 12 16 17 23 24 25 26 0
27 28 29 30 31 32 -33 34 35 -36 37 38 39 40 1 3 5 7 8 9 12 15 16 17 18 22 24 25 26 0
27 28 29 30 31 32 -33 34 35 -36 37 38 39 40 1 3 5 7 8 9 12 16 17 18 22 23 24 25 26 0
27 -28 29 30 31 32 -33 34 35 -36 37 38 39 40 2 3 4 5 7 8 9 11 12 15 16 17 25 0
27 -28 29 30 31 32 -33 34 35 -36 37 38 39 40 2 3 4 5 7 8 9 11 12 16 17 23 25 0
27 -28 29 30 31 32 -33 34 35 -36 37 38 39 40 2 3 4 5 7 8 11 12 15 16 17 22 25 0
27 -28 29 30 31 32 -33 34 35 -36 37 38 39 40 2 3 4 5 7 8 11 12 16 17 22 23 25 0
27 -28 29 30 31 32 -33 34 35 -36 37 38 39 40 2 3 5 7 8 9 11 12 15 16 17 25 26 0
27 -28 29 30 31 32 -33 34 35 -36 37 38 39 40 2 3 5 7 8 9 11 12 16 17 23 25 26 0
27 -28 29 30 31 32 -33 34 35 -36 37 38 39 40 2 3 5 7 8 11 12 15 16 17 22 25 26 0
27 -28 29 30 31 32 -33 34 35 -36 37 38 39 40 2 3 5 7 8 11 12 16 17 22 23 25 26 0
27 28 29 30 31 -32 -33 34 35 -36 37 38 39 40 1 2 3 4 7 8 11 12 15 16 17 18 25 0
27 28 29 30 31 -32 -33 34 35 -36 37 38 39 40 1 2 3 4 7 8 11 12 15 16 17 24 25 0
27 28 29 30 31 -32 -33 34 35 -36 37 38 39 40 1 2 3 4 7 8 11 12 16 17 18 23 25 0
27 28 29 30 31 -32 -33 34 35 -36 37 38 39 40 1 2 3 4 7 8 11 12 16 17 23 24 25 0
27 28 29 30 31 -32 -33 34 35 -36 37 38 39 40 1 2 3 7 8 11 12 15 16 17 18 25 26 0
27 28 29 30 31 -32 -33 34 35 -36 37 38 39 40 1 2 3 7 8 11 12 15 16 17 24 25 26 0
27 28 29 30 31 -32 -33 34 35 -36 37 38 39 40 1 2 3 7 8 11 12 16 17 18 23 25 26 0
27 28 29 30 31 -32 -33 34 35 -36 37 38 39 40 1 2 3 7 8 11 12 16 17 23 24 25 26 0
27 -28 29 30 31 -32 -33 34 35 -36 37 38 39 40 2 3 4 7 8 11 12 15 16 17 25 0
27 -28 29 30 31 -32 -33 34 35 -36 37 38 39 40 2 3 4 7 8 11 12 16 17 23 25 0
27 -28 29 30 31 -32 -33 34 35 -36 37 38 39 40 2 3 7 8 11 12 15 16 17 25 26 0
27 -28 29 30 31 -32 -33 34 35 -36 37 38 39 40 2 3 7 8 11 12 16 17 23 25 26 0
27 28 29 30 31 32 33 -34 35 -36 37 38 39 40 1 2 3 4 5 6 9 11 12 13 15 16 17 18 25 0
27 28 29 30 31 32 33 -34 35 -36 37 38 39 40 1 2 3 4 5 6 9 11 12 13 15 17 18 25 26 0
27 28 29 30 31 32 33 -34 35 -36 37 38 39 40 1 2 3 4 5 6 11 12 13 15 16 17 22 24 25 0
27 28 29 30 31 32 33 -34 35 -36 37 38 39 40 1 2 3 4 5 6 11 12 13 15 17 22 24 25 26 0
27 28 29 30 31 32 33 -34 35 -36 37 38 39 40 1 2 3 4 5 6 12 13 15 16 17 18 22 25 0
27 28 29 30 31 32 33 -34 35 -36 37 38 39 40 1 2 3 4 5 6 12 13 15 17 18 22 25 26 0
27 28 29 30 31 32 33 -34 35 -36 37 38 39 40 1 2 3 4 5 9 11 12 13 14 15 16 17 18 25 0
27 28 29 30 31 32 33 -34 35 -36 37 38 39 40 1 2 3 4 5 9 11 12 13 14 15 17 18 25 26 0
27 28 29 30 31 32 33 -34 35 -36 37 38 39 40 1 2 3 4 5 9 11 12 13 14 16 17 18 23 25 0
27 28 29 30 31 32 33 -34 35 -36 37 38 39 40 1 2 3 4 5 9 11 12 13 14 17 18 23 25 26 0
27 28 29 30 31 32 33 -34 35 -36 37 38 39 40 1 2 3 4 5 11 12 13 14 15 16 17 22 24 25 0
27 28 29 30 31 32 33 -34 35 -36 37 38 39 40 1 2 3 4 5 11 12 13 14 15 17 22 24 25 26 0
27 28 29 30 31 32 33 -34 35 -36 37 38 39 40 1 2 3 4 5 11 12 13 14 16 17 22 23 24 25 0
27 28 29 30 31 32 33 -34 35 -36 37 38 39 40 1 2 3 4 5 11 12 13 14 17 22 23 24 25 26 0
27 28 29 30 31 32 33 -34 35 -36 37 38 39 40 1 2 3 4 5 12 13 14 15 16 17 18 22 25 0
27 28 29 30 31 32 33 -34 35 -36 37 38 39 40 1 2 3 4 5 12 13 14 15 17 18 22 25 26 0
27 28 29 30 31 32 33 -34 35 -36 37 38 39 40 1 2 3 4 5 12 13 14 16 17 18 22 23 25 0
27 28 29 30 31 32 33 -34 35 -36 37 38 39 40 1 2 3 4 5 12 13 14 17 18 22 23 25 26 0
27 28 29 30 31 32 33 -34 35 -36 37 38 39 40 1 2 4 5 6 9 11 12 13 16 17 18 23 25 0
27 28 29 30 31 32 33 -34 35 -36 37 38 39 40 1 2 4 5 6 9 11 12 13 17 18 23 25 26 0
27 28 29 30 31 32 33 -34 35 -36 37 38 39 40 1 2 4 5 6 11 12 13 16 17 22 23 24 25 0
27 28 29 30 31 32 33 -34 35 -36 37 38 39 40 1 2 4 5 6 11 12 13 17 22 23 24 25 26 0
27 28 29 30 31 32 33 -34 35 -36 37 38 39 40 1 2 4 5 6 12 13 16 17 18 22 23 25 0
27 28 29 30 31 32 33 -34 35 -36 37 38 39 40 1 2 4 5 6 12 13 17 18 22 23 25 26 0
27 28 29 30 31 32 33 -34 35 -36 37 38 39 40 1 3 4 5 6 9 11 12 13 15 16 17 24 25 0
27 28 29 30 31 32 33 -34 35 -36 37 38 39 40 1 3 4 5 6 9 11 12 13 15 17 24 25 26 0
27 28 29 30 31 32 33 -34 35 -36 37 38 39 40 1 3 4 5 6 9 12 13 15 16 17 18 22 24 25 0
27 28 29 30 31 32 33 -34 35 -36 37 38 39 40 1 3 4 5 6 9 12 13 15 17 18 22 24 25 26 0
27 28 29 30 31 32 33 -34 35 -36 37 38 39 40 1 3 4 5 9 11 12 13 14 15 16 17 24 25 0
27 28 29 30 31 32 33 -34 35 -36 37 38 39 40 1 3 4 5 9 11 12 13 14 15 17 24 25 26 0
27 28 29 30 31 32 33 -34 35 -36 37 38 39 40 1 3 4 5 9 11 12 13 14 16 17 23 24 25 0
27 28 29 30 31 32 33 -34 35 -36 37 38 39 40 1 3 4 5 9 11 12 13 14 17 23 24 25 26 0
27 28 29 30 31 32 33 -34 35 -36 37 38 39 40 1 3 4 5 9 12 13 14 15 16 17 18 22 24 25 0
27 28 29 30 31 32 33 -34 35 -36 37 38 39 40 1 3 4 5 9 12 13 14 15 17 18 22 24 25 26 0
27 28 29 30 31 32 33 -34 35 -36 37 38 39 40 1 3 4 5 9 12 13 14 16 17 18 22 23 24 25 0
27 28 29 30 31 32 33 -34 35 -36 37 38 39 40 1 3 4 5 9 12 13 14 17 18 22 23 24 25 26 0
27 28 29 30 31 32 33 -34 35 -36 37 38 39 40 1 4 5 6 9 11 12 13 16 17 23 24 25 0
27 28 29 30 31 32 33 -34 35 -36 37 38 39 40 1 4 5 6 9 11 12 13 17 23 24 25 26 0
27 28 29 30 31 32 33 -34 35 -36 37 38 39 40 1 4 5 6 9 12 13 16 17 18 22 23 24 25 0
27 28 29 30 31 32 33 -34 35 -36 37 38 39 40 1 4 5 6 9 12 13 17 18 22 23 24 25 26 0
-27 28 29 30 31 32 33 -34 35 -36 37 38 39 40 2 4 5 9 11 12 13 14 16 17 18 23 25 0
-27 28 29 30 31 32 33 -34 35 -36 37 38 39 40 2 4 5 9 11 12 13 14 17 18 23 25 26 0
-27 28 29 30 31 32 33 -34 35 -36 37 38 39 40 2 4 5 11 12 13 14 16 17 22 23 24 25 0
-27 28 29 30 31 32 33 -34 35 -36 37 38 39 40 2 4 5 11 12 13 14 17 22 23 24 25 26 0
-27 28 29 30 31 32 33 -34 35 -36 37 38 39 40 2 4 5 12 13 14 16 17 18 22 23 25 0
-27 28 29 30 31 32 33 -34 35 -36 37 38 39 40 2 4 5 12 13 14 17 18 22 23 25 26 0
-27 28 29 30 31 32 33 -34 35 -36 37 38 39 40 4 5 9 11 12 13 14 16 17 23 24 25 0
-27 28 29 30 31 32 33 -34 35 -36 37 38 39 40 4 5 9 11 12 13 14 17 23 24 25 26 0
-27 28 29 30 31 32 33 -34 35 -36 37 38 39 40 4 5 9 12 13 14 16 17 18 22 23 24 25 0
-27 28 29 30 31 32 33 -34 35 -36 37 38 39 40 4 5 9 12 13 14 17 18 22 23 24 25 26 0
27 28 -29 30 31 32 33 -34 35 -36 37 38 39 40 1 3 5 6 11 12 13 15 17 22 24 25 26 0
27 28 -29 30 31 32 33 -34 35 -36 37 38 39 40 1 3 5 6 12 13 15 17 18 22 24 25 26 0
27 28 -29 30 31 32 33 -34 35 -36 37 38 39 40 1 3 5 11 12 13 14 15 17 22 24 25 26 0
27 28 -29 30 31 32 33 -34 35 -36 37 38 39 40 1 3 5 11 12 13 14 17 22 23 24 25 26 0
27 28 -29 30 31 32 33 -34 35 -36 37 38 39 40 1 3 5 12 13 14 15 17 18 22 24 25 26 0
27 28 -29 30 31 32 33 -34 35 -36 37 38 39 40 1 3 5 12 13 14 17 18 22 23 24 25 26 0
27 28 -29 30 31 32 33 -34 35 -36 37 38 39 40 1 5 6 11 12 13 17 22 23 24 25 26 0
27 28 -29 30 31 32 33 -34 35 -36 37 38 39 40 1 5 6 12 13 17 18 22 23 24 25 26 0
-27 28 -29 30 31 32 33 -34 35 -36 37 38 39 40 5 11 12 13 14 17 22 23 24 25 26 0
-27 28 -29 30 31 32 33 -34 35 -36 37 38 39 40 5 12 13 14 17 18 22 23 24 25 26 0
27 28 29 -30 31 32 33 -34 35 -36 37 38 39 40 1 4 5 6 9 11 12 13 15 16 17 18 25 0
27 28 29 -30 31 32 33 -34 35 -36 37 38 39 40 1 4 5 6 9 11 12 13 15 17 18 25 26 0
27 28 29 -30 31 32 33 -34 35 -36 37 38 39 40 1 4 5 6 9 12 13 15 16 17 18 22 25 0
27 28 29 -30 31 32 33 -34 35 -36 37 38 39 40 1 4 5 6 9 12 13 15 17 18 22 25 26 0
-27 28 29 -30 31 32 33 -34 35 -36 37 38 39 40 4 5 9 11 12 13 14 15 16 17 18 25 0
-27 28 29 -30 31 32 33 -34 35 -36 37 38 39 40 4 5 9 11 12 13 14 15 17 18 25 26 0
-27 28 29 -30 31 32 33 -34 35 -36 37 38 39 40 4 5 9 12 13 14 15 16 17 18 22 25 0
-27 28 29 -30 31 32 33 -34 35 -36 37 38 39 40 4 5 9 12 13 14 15 17 18 22 25 26 0
27 28 -29 -30 31 32 33 -34 35 -36 37 38 39 40 1 5 6 12 13 15 17 18 22 25 26 0
-27 28 -29 -30 31 32 33 -34 35 -36 37 38 39 40 5 12 13 14 15 17 18 22 25 26 0
27 28 29 30 31 -32 33 -34 35 -36 37 38 39 40 1 2 3 4 6 11 12 13 15 16 17 18 25 0
27 28 29 30 31 -32 33 -34 35 -36 37 38 39 40 1 2 3 4 6 11 12 13 15 16 17 24 25 0
27 28 29 30 31 -32 33 -34 35 -36 37 38 39 40 1 2 3 4 6 11 12 13 15 17 18 25 26 0
27 28 29 30 31 -32 33 -34 35 -36 37 38 39 40 1 2 3 4 6 11 12 13 15 17 24 25 26 0
27 28 29 30 31 -32 33 -34 35 -36 37 38 39 40 1 2 3 4 11 12 13 14 15 16 17 18 25 0
27 28 29 30 31 -32 33 -34 35 -36 37 38 39 40 1 2 3 4 11 12 13 14 15 16 17 24 25 0
27 28 29 30 31 -32 33 -34 35 -36 37 38 39 40 1 2 3 4 11 12 13 14 15 17 18 25 26 0
27 28 29 30 31 -32 33 -34 35 -36 37 38 39 40 1 2 3 4 11 12 13 14 15 17 24 25 26 0
27 28 29 30 31 -32 33 -34 35 -36 37 38 39 40 1 2 3 4 11 12 13 14 16 17 18 23 25 0
27 28 29 30 31 -32 33 -34 35 -36 37 38 39 40 1 2 3 4 11 12 13 14 16 17 23 24 25 0
27 28 29 30 31 -32 33 -34 35 -36 37 38 39 40 1 2 3 4 11 12 13 14 17 18 23 25 26 0
27 28 29 30 31 -32 33 -34 35 -36 37 38 39 40 1 2 3 4 11 12 13 14 17 23 24 25 26 0
27 28 29 30 31 -32 33 -34 35 -36 37 38 39 40 1 2 4 6 11 12 13 16 17 18 23 25 0
27 28 29 30 31 -32 33 -34 35 -36 37 38 39 40 1 2 4 6 11 12 13 16 17 23 24 25 0
27 28 29 30 31 -32 33 -34 35 -36 37 38 39 40 1 2 4 6 11 12 13 17 18 23 25 26 0
27 28 29 30 31 -32 33 -34 35 -36 37 38 39 40 1 2 4 6 11 12 13 17 23 24 25 26 0
-27 28 29 30 31 -32 33 -34 35 -36 37 38 39 40 2 4 11 12 13 14 16 17 18 23 25 0
-27 28 29 30 31 -32 33 -34 35 -36 37 38 39 40 2 4 11 12 13 14 16 17 23 24 25 0
-27 28 29 30 31 -32 33 -34 35 -36 37 38 39 40 2 4 11 12 13 14 17 18 23 25 26 0
-27 28 29 30 31 -32 33 -34 35 -36 37 38 39 40 2 4 11 12 13 14 17 23 24 25 26 0
27 28 -29 30 31 -32 33 -34 35 -36 37 38 39 40 1 3 6 11 12 13 15 17 24 25 26 0
27 28 -29 30 31 -32 33 -34 35 -36 37 38 39 40 1 3 11 12 13 14 15 17 24 25 26 0
27 28 -29 30 31 -32 33 -34 35 -36 37 38 39 40 1 3 11 12 13 14 17 23 24 25 26 0
27 28 -29 30 31 -32 33 -34 35 -36 37 38 39 40 1 6 11 12 13 17 23 24 25 26 0
-27 28 -29 30 31 -32 33 -34 35 -36 37 38 39 40 11 12 13 14 17 23 24 25 26 0
27 28 -29 -30 31 -32 33 -34 35 -36 37 38 39 40 1 6 11 12 13 15 17 18 25 26 0
-27 28 -29 -30 31 -32 33 -34 35 -36 37 38 39 40 11 12 13 14 15 17 18 25 26 0
27 28 29 30 31 32 -33 -34 35 -36 37 38 39 40 1 2 3 4 5 9 11 12 15 16 17 18 25 0
27 28 29 30 31 32 -33 -34 35 -36 37 38 39 40 1 2 3 4 5 9 11 12 16 17 18 23 25 0
27 28 29 30 31 32 -33 -34 35 -36 37 38 39 40 1 2 3 4 5 11 12 15 16 17 22 24 25 0
27 28 29 30 31 32 -33 -34 35 -36 37 38 39 40 1 2 3 4 5 11 12 16 17 22 23 24 25 0
27 28 29 30 31 32 -33 -34 35 -36 37 38 39 40 1 2 3 4 5 12 15 16 17 18 22 25 0
27 28 29 30 31 32 -33 -34 35 -36 37 38 39 40 1 2 3 4 5 12 16 17 18 22 23 25 0
27 28 29 30 31 32 -33 -34 35 -36 37 38 39 40 1 3 4 5 9 11 12 15 16 17 24 25 0
27 28 29 30 31 32 -33 -34 35 -36 37 38 39 40 1 3 4 5 9 11 12 16 17 23 24 25 0
27 28 29 30 31 32 -33 -34 35 -36 37 38 39 40 1 3 4 5 9 12 15 16 17 18 22 24 25 0
27 28 29 30 31 32 -33 -34 35 -36 37 38 39 40 1 3 4 5 9 12 16 17 18 22 23 24 25 0
-27 -28 29 30 31 32 -33 -34 35 -36 37 38 39 40 2 4 5 9 11 12 16 17 23 25 0
-27 -28 29 30 31 32 -33 -34 35 -36 37 38 39 40 2 4 5 11 12 16 17 22 23 25 0
27 28 -29 30 31 32 -33 -34 35 -36 37 38 39 40 1 3 5 11 12 15 16 17 22 24 25 26 0
27 28 -29 30 31 32 -33 -34 35 -36 37 38 39 40 1 3 5 11 12 16 17 22 23 24 25 26 0
27 28 -29 30 31 32 -33 -34 35 -36 37 38 39 40 1 3 5 12 15 16 17 18 22 24 25 26 0
27 28 -29 30 31 32 -33 -34 35 -36 37 38 39 40 1 3 5 12 16 17 18 22 23 24 25 26 0
-27 -28 29 -30 31 32 -33 -34 35 -36 37 38 39 40 4 5 9 11 12 15 16 17 25 0
-27 -28 -29 -30 31 32 -33 -34 35 -36 37 38 39 40 5 11 12 15 16 17 22 25 26 0
27 28 29 30 31 -32 -33 -34 35 -36 37 38 39 40 1 2 3 4 11 12 15 16 17 18 25 0
27 28 29 30 31 -32 -33 -34 35 -36 37 38 39 40 1 2 3 4 11 12 15 16 17 24 25 0
27 28 29 30 31 -32 -33 -34 35 -36 37 38 39 40 1 2 3 4 11 12 16 17 18 23 25 0
27 28 29 30 31 -32 -33 -34 35 -36 37 38 39 40 1 2 3 4 11 12 16 17 23 24 25 0
-27 -28 29 30 31 -32 -33 -34 35 -36 37 38 39 40 2 4 11 12 16 17 23 25 0
27 28 -29 30 31 -32 -33 -34 35 -36 37 38 39 40 1 3 11 12 15 16 17 24 25 26 0
27 28 -29 30 31 -32 -33 -34 35 -36 37 38 39 40 1 3 11 12 16 17 23 24 25 26 0
-27 -28 -29 -30 31 -32 -33 -34 35 -36 37 38 39 40 11 12 15 16 17 25 26 0
27 28 29 30 31 32 33 34 35 36 -37 38 39 40 1 2 3 4 6 8 10 12 15 17 20 21 22 24 25 26 0
27 28 29 30 31 32 33 34 35 36 -37 38 39 40 1 2 3 4 6 12 15 17 19 20 21 22 24 25 26 0
27 28 29 30 31 32 33 34 35 36 -37 38 39 40 1 2 3 4 12 14 15 17 19 20 21 22 24 25 26 0
27 28 29 30 31 32 33 34 35 36 -37 38 39 40 1 2 3 4 12 14 17 19 20 21 22 23 24 25 26 0
27 28 29 30 31 32 33 34 35 36 -37 38 39 40 1 2 3 6 7 8 10 12 15 17 20 21 22 24 25 26 0
27 28 29 30 31 32 33 34 35 36 -37 38 39 40 1 2 3 6 7 12 15 17 19 20 21 22 24 25 26 0
27 28 29 30 31 32 33 34 35 36 -37 38 39 40 1 2 3 7 12 14 15 17 19 20 21 22 24 25 26 0
27 28 29 30 31 32 33 34 35 36 -37 38 39 40 1 2 3 7 12 14 17 19 20 21 22 23 24 25 26 0
27 28 29 30 31 32 33 34 35 36 -37 38 39 40 1 2 4 6 8 10 12 17 20 21 22 23 24 25 26 0
27 28 29 30 31 32 33 34 35 36 -37 38 39 40 1 2 4 6 12 17 19 20 21 22 23 24 25 26 0
27 28 29 30 31 32 33 34 35 36 -37 38 39 40 1 2 6 7 8 10 12 17 20 21 22 23 24 25 26 0
27 28 29 30 31 32 33 34 35 36 -37 38 39 40 1 2 6 7 12 17 19 20 21 22 23 24 25 26 0
27 28 29 30 31 32 33 34 35 36 -37 38 39 40 1 3 4 6 8 9 10 12 15 17 20 21 22 24 25 26 0
27 28 29 30 31 32 33 34 35 36 -37 38 39 40 1 3 4 6 9 12 15 17 19 20 21 22 24 25 26 0
27 28 29 30 31 32 33 34 35 36 -37 38 39 40 1 3 4 9 12 14 15 17 19 20 21 22 24 25 26 0
27 28 29 30 31 32 33 34 35 36 -37 38 39 40 1 3 4 9 12 14 17 19 20 21 22 23 24 25 26 0
27 28 29 30 31 32 33 34 35 36 -37 38 39 40 1 3 6 7 8 9 10 12 15 17 20 21 22 24 25 26 0
27 28 29 30 31 32 33 34 35 36 -37 38 39 40 1 3 6 7 9 12 15 17 19 20 21 22 24 25 26 0
27 28 29 30 31 32 33 34 35 36 -37 38 39 40 1 3 7 9 12 14 15 17 19 20 21 22 24 25 26 0
27 28 29 30 31 32 33 34 35 36 -37 38 39 40 1 3 7 9 12 14 17 19 20 21 22 23 24 25 26 0
27 28 29 30 31 32 33 34 35 36 -37 38 39 40 1 4 6 8 9 10 12 17 20 21 22 23 24 25 26 0
27 28 29 30 31 32 33 34 35 36 -37 38 39 40 1 4 6 9 12 17 19 20 21 22 23 24 25 26 0
27 28 29 30 31 32 33 34 35 36 -37 38 39 40 1 6 7 8 9 10 12 17 20 21 22 23 24 25 26 0
27 28 29 30 31 32 33 34 35 36 -37 38 39 40 1 6 7 9 12 17 19 20 21 22 23 24 25 26 0
27 28 29 30 31 32 33 34 35 36 -37 38 39 40 2 3 4 8 10 12 14 15 17 20 21 22 24 25 26 0
27 28 29 30 31 32 33 34 35 36 -37 38 39 40 2 3 4 8 10 12 14 17 20 21 22 23 24 25 26 0
27 28 29 30 31 32 33 34 35 36 -37 38 39 40 2 3 4 8 12 14 15 17 19 20 21 22 24 25 26 0
27 28 29 30 31 32 33 34 35 36 -37 38 39 40 2 3 4 8 12 14 17 19 20 21 22 23 24 25 26 0
27 28 29 30 31 32 33 34 35 36 -37 38 39 40 2 3 7 8 10 12 14 15 17 20 21 22 24 25 26 0
27 28 29 30 31 32 33 34 35 36 -37 38 39 40 2 3 7 8 10 12 14 17 20 21 22 23 24 25 26 0
27 28 29 30 31 32 33 34 35 36 -37 38 39 40 2 3 7 8 12 14 15 17 19 20 21 22 24 25 26 0
27 28 29 30 31 32 33 34 35 36 -37 38 39 40 2 3 7 8 12 14 17 19 20 21 22 23 24 25 26 0
27 28 29 30 31 32 33 34 35 36 -37 38 39 40 2 4 6 8 10 12 14 17 20 21 22 23 24 25 26 0
27 28 29 30 31 32 33 34 35 36 -37 38 39 40 2 4 6 8 12 14 17 19 20 21 22 23 24 25 26 0
27 28 29 30 31 32 33 34 35 36 -37 38 39 40 2 6 7 8 10 12 14 17 20 21 22 23 24 25 26 0
27 28 29 30 31 32 33 34 35 36 -37 38 39 40 2 6 7 8 12 14 17 19 20 21 22 23 24 25 26 0
27 28 29 30 31 32 33 34 35 36 -37 38 39 40 3 4 8 9 10 12 14 15 17 20 21 22 24 25 26 0
27 28 29 30 31 32 33 34 35 36 -37 38 39 40 3 4 8 9 10 12 14 17 20 21 22 23 24 25 26 0
27 28 29 30 31 32 33 34 35 36 -37 38 39 40 3 4 8 9 12 14 15 17 19 20 21 22 24 25 26 0
27 28 29 30 31 32 33 34 35 36 -37 38 39 40 3 4 8 9 12 14 17 19 20 21 22 23 24 25 26 0
27 28 29 30 31 32 33 34 35 36 -37 38 39 40 3 7 8 9 10 12 14 15 17 20 21 22 24 25 26 0
27 28 29 30 31 32 33 34 35 36 -37 38 39 40 3 7 8 9 10 12 14 17 20 21 22 23 24 25 26 0
27 28 29 30 31 32 33 34 35 36 -37 38 39 40 3 7 8 9 12 14 15 17 19 20 21 22 24 25 26 0
27 28 29 30 31 32 33 34 35 36 -37 38 39 40 3 7 8 9 12 14 17 19 20 21 22 23 24 25 26 0
27 28 29 30 31 32 33 34 35 36 -37 38 39 40 4 6 8 9 10 12 14 17 20 21 22 23 24 25 26 0
27 28 29 30 31 32 33 34 35 36 -37 38 39 40 4 6 8 9 12 14 17 19 20 21 22 23 24 25 26 0
27 28 29 30 31 32 33 34 35 36 -37 38 39 40 6 7 8 9 10 12 14 17 20 21 22 23 24 25 26 0
27 28 29 30 31 32 33 34 35 36 -37 38 39 40 6 7 8 9 12 14 17 19 20 21 22 23 24 25 26 0
-27 28 29 30 31 32 33 34 35 36 -37 38 39 40 2 4 12 14 17 19 20 21 22 23 24 25 26 0
-27 28 29 30 31 32 33 34 35 36 -37 38 39 40 2 7 12 14 17 19 20 21 22 23 24 25 26 0
-27 28 29 30 31 32 33 34 35 36 -37 38 39 40 4 9 12 14 17 19 20 21 22 23 24 25 26 0
-27 28 29 30 31 32 33 34 35 36 -37 38 39 40 7 9 12 14 17 19 20 21 22 23 24 25 26 0
27 -28 29 30 31 32 33 34 35 36 -37 38 39 40 2 3 4 6 8 10 12 15 17 20 21 22 25 26 0
27 -28 29 30 31 32 33 34 35 36 -37 38 39 40 2 3 4 6 8 12 15 17 19 20 21 22 25 26 0
27 -28 29 30 31 32 33 34 35 36 -37 38 39 40 2 3 6 7 8 10 12 15 17 20 21 22 25 26 0
27 -28 29 30 31 32 33 34 35 36 -37 38 39 40 2 3 6 7 8 12 15 17 19 20 21 22 25 26 0
27 -28 29 30 31 32 33 34 35 36 -37 38 39 40 2 4 6 8 10 12 17 20 21 22 23 25 26 0
27 -28 29 30 31 32 33 34 35 36 -37 38 39 40 2 4 6 8 12 17 19 20 21 22 23 25 26 0
27 -28 29 30 31 32 33 34 35 36 -37 38 39 40 2 6 7 8 10 12 17 20 21 22 23 25 26 0
27 -28 29 30 31 32 33 34 35 36 -37 38 39 40 2 6 7 8 12 17 19 20 21 22 23 25 26 0
27 28 -29 30 31 32 33 34 35 36 -37 38 39 40 1 3 6 8 10 12 15 17 20 21 22 24 25 26 0
27 28 -29 30 31 32 33 34 35 36 -37 38 39 40 1 3 6 12 15 17 19 20 21 22 24 25 26 0
27 28 -29 30 31 32 33 34 35 36 -37 38 39 40 1 3 12 14 15 17 19 20 21 22 24 25 26 0
27 28 -29 30 31 32 33 34 35 36 -37 38 39 40 1 3 12 14 17 19 20 21 22 23 24 25 26 0
27 28 -29 30 31 32 33 34 35 36 -37 38 39 40 1 6 8 10 12 17 20 21 22 23 24 25 26 0
27 28 -29 30 31 32 33 34 35 36 -37 38 39 40 1 6 12 17 19 20 21 22 23 24 25 26 0
27 28 -29 30 31 32 33 34 35 36 -37 38 39 40 3 8 10 12 14 15 17 20 21 22 24 25 26 0
27 28 -29 30 31 32 33 34 35 36 -37 38 39 40 3 8 10 12 14 17 20 21 22 23 24 25 26 0
27 28 -29 30 31 32 33 34 35 36 -37 38 39 40 3 8 12 14 15 17 19 20 21 22 24 25 26 0
27 28 -29 30 31 32 33 34 35 36 -37 38 39 40 3 8 12 14 17 19 20 21 22 23 24 25 26 0
27 28 -29 30 31 32 33 34 35 36 -37 38 39 40 6 8 10 12 14 17 20 21 22 23 24 25 26 0
27 28 -29 30 31 32 33 34 35 36 -37 38 39 40 6 8 12 14 17 19 20 21 22 23 24 25 26 0
-27 28 -29 30 31 32 33 34 35 36 -37 38 39 40 12 14 17 19 20 21 22 23 24 25 26 0
27 -28 29 -30 31 32 33 34 35 36 -37 38 39 40 4 6 8 9 10 12 15 17 20 21 22 25 26 0
27 -28 29 -30 31 32 33 34 35 36 -37 38 39 40 4 6 8 9 12 15 17 19 20 21 22 25 26 0
27 -28 29 -30 31 32 33 34 35 36 -37 38 39 40 6 7 8 9 10 12 15 17 20 21 22 25 26 0
27 -28 29 -30 31 32 33 34 35 36 -37 38 39 40 6 7 8 9 12 15 17 19 20 21 22 25 26 0
27 -28 -29 -30 31 32 33 34 35 36 -37 38 39 40 6 8 10 12 15 17 20 21 22 25 26 0
27 -28 -29 -30 31 32 33 34 35 36 -37 38 39 40 6 8 12 15 17 19 20 21 22 25 26 0
27 28 29 30 31 32 -33 34 35 36 -37 38 39 40 1 2 3 7 8 10 12 15 17 21 22 24 25 26 0
27 28 29 30 31 32 -33 34 35 36 -37 38 39 40 1 2 3 7 8 10 12 17 21 22 23 24 25 26 0
27 28 29 30 31 32 -33 34 35 36 -37 38 39 40 1 2 3 7 12 15 17 19 21 22 24 25 26 0
27 28 29 30 31 32 -33 34 35 36 -37 38 39 40 1 2 3 7 12 17 19 21 22 23 24 25 26 0
27 28 29 30 31 32 -33 34 35 36 -37 38 39 40 1 3 7 8 9 10 12 15 17 21 22 24 25 26 0
27 28 29 30 31 32 -33 34 35 36 -37 38 39 40 1 3 7 8 9 10 12 17 21 22 23 24 25 26 0
27 28 29 30 31 32 -33 34 35 36 -37 38 39 40 1 3 7 9 12 15 17 19 21 22 24 25 26 0
27 28 29 30 31 32 -33 34 35 36 -37 38 39 40 1 3 7 9 12 17 19 21 22 23 24 25 26 0
27 -28 29 30 31 32 -33 34 35 36 -37 38 39 40 2 3 7 8 10 12 15 17 21 22 25 26 0
27 -28 29 30 31 32 -33 34 35 36 -37 38 39 40 2 3 7 8 10 12 17 21 22 23 25 26 0
27 -28 29 30 31 32 -33 34 35 36 -37 38 39 40 2 3 7 8 12 15 17 19 21 22 25 26 0
27 -28 29 30 31 32 -33 34 35 36 -37 38 39 40 2 3 7 8 12 17 19 21 22 23 25 26 0
-27 -28 29 30 31 32 -33 34 35 36 -37 38 39 40 2 7 12 17 19 21 22 23 25 26 0
-27 -28 29 -30 31 32 -33 34 35 36 -37 38 39 40 7 9 12 15 17 19 21 22 25 26 0
27 28 29 30 31 32 -33 -34 35 36 -37 38 39 40 1 2 3 4 10 12 15 17 21 22 24 25 26 0
27 28 29 30 31 32 -33 -34 35 36 -37 38 39 40 1 2 3 4 10 12 17 21 22 23 24 25 26 0
27 28 29 30 31 32 -33 -34 35 36 -37 38 39 40 1 3 4 9 10 12 15 17 21 22 24 25 26 0
27 28 29 30 31 32 -33 -34 35 36 -37 38 39 40 1 3 4 9 10 12 17 21 22 23 24 25 26 0
-27 -28 29 30 31 32 -33 -34 35 36 -37 38 39 40 2 4 10 12 17 21 22 23 25 26 0
27 28 -29 30 31 32 -33 -34 35 36 -37 38 39 40 1 3 10 12 15 17 21 22 24 25 26 0
27 28 -29 30 31 32 -33 -34 35 36 -37 38 39 40 1 3 10 12 17 21 22 23 24 25 26 0
-27 -28 29 -30 31 32 -33 -34 35 36 -37 38 39 40 4 9 10 12 15 17 21 22 25 26 0
-27 -28 -29 -30 31 32 -33 -34 35 36 -37 38 39 40 10 12 15 17 21 22 25 26 0
27 28 29 30 31 32 33 34 35 -36 -37 38 39 40 1 2 3 4 5 6 8 12 15 17 20 22 24 25 26 0
27 28 29 30 31 32 33 34 35 -36 -37 38 39 40 1 2 3 5 6 7 8 12 15 17 20 22 24 25 26 0
27 28 29 30 31 32 33 34 35 -36 -37 38 39 40 1 2 4 5 6 8 12 17 20 22 23 24 25 26 0
27 28 29 30 31 32 33 34 35 -36 -37 38 39 40 1 2 5 6 7 8 12 17 20 22 23 24 25 26 0
27 28 29 30 31 32 33 34 35 -36 -37 38 39 40 1 3 4 5 6 8 9 12 15 17 20 22 24 25 26 0
27 28 29 30 31 32 33 34 35 -36 -37 38 39 40 1 3 5 6 7 8 9 12 15 17 20 22 24 25 26 0
27 28 29 30 31 32 33 34 35 -36 -37 38 39 40 1 4 5 6 8 9 12 17 20 22 23 24 25 26 0
27 28 29 30 31 32 33 34 35 -36 -37 38 39 40 1 5 6 7 8 9 12 17 20 22 23 24 25 26 0
27 28 29 30 31 32 33 34 35 -36 -37 38 39 40 2 3 4 5 8 12 14 15 17 20 22 24 25 26 0
27 28 29 30 31 32 33 34 35 -36 -37 38 39 40 2 3 4 5 8 12 14 17 20 22 23 24 25 26 0
27 28 29 30 31 32 33 34 35 -36 -37 38 39 40 2 3 5 7 8 12 14 15 17 20 22 24 25 26 0
27 28 29 30 31 32 33 34 35 -36 -37 38 39 40 2 3 5 7 8 12 14 17 20 22 23 24 25 26 0
27 28 29 30 31 32 33 34 35 -36 -37 38 39 40 2 4 5 6 8 12 14 17 20 22 23 24 25 26 0
27 28 29 30 31 32 33 34 35 -36 -37 38 39 40 2 5 6 7 8 12 14 17 20 22 23 24 25 26 0
27 28 29 30 31 32 33 34 35 -36 -37 38 39 40 3 4 5 8 9 12 14 15 17 20 22 24 25 26 0
27 28 29 30 31 32 33 34 35 -36 -37 38 39 40 3 4 5 8 9 12 14 17 20 22 23 24 25 26 0
27 28 29 30 31 32 33 34 35 -36 -37 38 39 40 3 5 7 8 9 12 14 15 17 20 22 24 25 26 0
27 28 29 30 31 32 33 34 35 -36 -37 38 39 40 3 5 7 8 9 12 14 17 20 22 23 24 25 26 0
27 28 29 30 31 32 33 34 35 -36 -37 38 39 40 4 5 6 8 9 12 14 17 20 22 23 24 25 26 0
27 28 29 30 31 32 33 34 35 -36 -37 38 39 40 5 6 7 8 9 12 14 17 20 22 23 24 25 26 0
27 -28 29 30 31 32 33 34 35 -36 -37 38 39 40 2 3 4 5 6 8 12 15 17 20 22 25 26 0
27 -28 29 30 31 32 33 34 35 -36 -37 38 39 40 2 3 5 6 7 8 12 15 17 20 22 25 26 0
27 -28 29 30 31 32 33 34 35 -36 -37 38 39 40 2 4 5 6 8 12 17 20 22 23 25 26 0
27 -28 29 30 31 32 33 34 35 -36 -37 38 39 40 2 5 6 7 8 12 17 20 22 23 25 26 0
27 28 -29 30 31 32 33 34 35 -36 -37 38 39 40 1 3 5 6 8 12 15 17 20 22 24 25 26 0
27 28 -29 30 31 32 33 34 35 -36 -37 38 39 40 1 5 6 8 12 17 20 22 23 24 25 26 0
27 28 -29 30 31 32 33 34 35 -36 -37 38 39 40 3 5 8 12 14 15 17 20 22 24 25 26 0
27 28 -29 30 31 32 33 34 35 -36 -37 38 39 40 3 5 8 12 14 17 20 22 23 24 25 26 0
27 28 -29 30 31 32 33 34 35 -36 -37 38 39 40 5 6 8 12 14 17 20 22 23 24 25 26 0
27 -28 29 -30 31 32 33 34 35 -36 -37 38 39 40 4 5 6 8 9 12 15 17 20 22 25 26 0
27 -28 29 -30 31 32 33 34 35 -36 -37 38 39 40 5 6 7 8 9 12 15 17 20 22 25 26 0
27 -28 -29 -30 31 32 33 34 35 -36 -37 38 39 40 5 6 8 12 15 17 20 22 25 26 0
27 28 29 30 31 32 -33 34 35 -36 -37 38 39 40 1 2 3 5 7 8 12 15 17 22 24 25 26 0
27 28 29 30 31 32 -33 34 35 -36 -37 38 39 40 1 2 3 5 7 8 12 17 22 23 24 25 26 0
27 28 29 30 31 32 -33 34 35 -36 -37 38 39 40 1 3 5 7 8 9 12 15 17 22 24 25 26 0
27 28 29 30 31 32 -33 34 35 -36 -37 38 39 40 1 3 5 7 8 9 12 17 22 23 24 25 26 0
27 -28 29 30 31 32 -33 34 35 -36 -37 38 39 40 2 3 5 7 8 12 15 17 22 25 26 0
27 -28 29 30 31 32 -33 34 35 -36 -37 38 39 40 2 3 5 7 8 12 17 22 23 25 26 0
27 28 29 30 31 32 -33 -34 35 -36 -37 38 39 40 1 2 3 4 5 12 15 17 22 24 25 26 0
27 28 29 30 31 32 -33 -34 35 -36 -37 38 39 40 1 2 3 4 5 12 17 22 23 24 25 26 0
27 28 29 30 31 32 -33 -34 35 -36 -37 38 39 40 1 3 4 5 9 12 15 17 22 24 25 26 0
27 28 29 30 31 32 -33 -34 35 -36 -37 38 39 40 1 3 4 5 9 12 17 22 23 24 25 26 0
-27 -28 29 30 31 32 -33 -34 35 -36 -37 38 39 40 2 4 5 12 17 22 23 25 26 0
27 28 -29 30 31 32 -33 -34 35 -36 -37 38 39 40 1 3 5 12 15 17 22 24 25 26 0
27 28 -29 30 31 32 -33 -34 35 -36 -37 38 39 40 1 3 5 12 17 22 23 24 25 26 0
-27 -28 29 -30 31 32 -33 -34 35 -36 -37 38 39 40 4 5 9 12 15 17 22 25 26 0
-27 -28 -29 -30 31 32 -33 -34 35 -36 -37 38 39 40 5 12 15 17 22 25 26 0
27 28 29 30 31 32 33 34 35 36 37 -38 39 40 1 2 3 4 6 7 8 9 10 13 15 16 17 18 21 25 0
27 28 29 30 31 32 33 34 35 36 37 -38 39 40 1 2 3 4 6 7 9 13 15 16 17 18 19 21 25 0
27 28 29 30 31 32 33 34 35 36 37 -38 39 40 1 2 3 4 6 8 9 10 13 15 17 18 20 21 25 26 0
27 28 29 30 31 32 33 34 35 36 37 -38 39 40 1 2 3 4 6 8 9 10 15 16 17 18 20 21 25 0
27 28 29 30 31 32 33 34 35 36 37 -38 39 40 1 2 3 4 6 9 13 15 17 18 19 20 21 25 26 0
27 28 29 30 31 32 33 34 35 36 37 -38 39 40 1 2 3 4 6 9 15 16 17 18 19 20 21 25 0
27 28 29 30 31 32 33 34 35 36 37 -38 39 40 1 2 3 4 7 9 13 14 15 16 17 18 19 21 25 0
27 28 29 30 31 32 33 34 35 36 37 -38 39 40 1 2 3 4 9 13 14 15 17 18 19 20 21 25 26 0
27 28 29 30 31 32 33 34 35 36 37 -38 39 40 1 2 3 4 9 14 15 16 17 18 19 20 21 25 0
27 28 29 30 31 32 33 34 35 36 37 -38 39 40 1 2 3 6 7 8 9 10 13 15 17 18 21 25 26 0
27 28 29 30 31 32 33 34 35 36 37 -38 39 40 1 2 3 6 7 8 9 10 15 16 17 18 20 21 25 26 0
27 28 29 30 31 32 33 34 35 36 37 -38 39 40 1 2 3 6 7 9 13 15 17 18 19 21 25 26 0
27 28 29 30 31 32 33 34 35 36 37 -38 39 40 1 2 3 6 7 9 15 16 17 18 19 20 21 25 26 0
27 28 29 30 31 32 33 34 35 36 37 -38 39 40 1 2 3 7 9 13 14 15 17 18 19 21 25 26 0
27 28 29 30 31 32 33 34 35 36 37 -38 39 40 1 2 3 7 9 14 15 16 17 18 19 20 21 25 26 0
27 28 29 30 31 32 33 34 35 36 37 -38 39 40 1 2 4 6 7 8 9 10 13 15 16 17 18 21 23 25 0
27 28 29 30 31 32 33 34 35 36 37 -38 39 40 1 2 4 6 7 9 13 15 16 17 18 19 21 23 25 0
27 28 29 30 31 32 33 34 35 36 37 -38 39 40 1 2 4 6 8 9 10 13 15 17 18 20 21 23 25 26 0
27 28 29 30 31 32 33 34 35 36 37 -38 39 40 1 2 4 6 8 9 10 15 16 17 18 20 21 23 25 0
27 28 29 30 31 32 33 34 35 36 37 -38 39 40 1 2 4 6 9 13 15 17 18 19 20 21 23 25 26 0
27 28 29 30 31 32 33 34 35 36 37 -38 39 40 1 2 4 6 9 15 16 17 18 19 20 21 23 25 0
27 28 29 30 31 32 33 34 35 36 37 -38 39 40 1 2 6 7 8 9 10 13 15 17 18 21 23 25 26 0
27 28 29 30 31 32 33 34 35 36 37 -38 39 40 1 2 6 7 8 9 10 15 16 17 18 20 21 23 25 26 0
27 28 29 30 31 32 33 34 35 36 37 -38 39 40 1 2 6 7 9 13 15 17 18 19 21 23 25 26 0
27 28 29 30 31 32 33 34 35 36 37 -38 39 40 1 2 6 7 9 15 16 17 18 19 20 21 23 25 26 0
27 28 29 30 31 32 33 34 35 36 37 -38 39 40 1 3 4 6 7 8 9 10 13 15 16 17 18 21 24 25 0
27 28 29 30 31 32 33 34 35 36 37 -38 39 40 1 3 4 6 7 9 13 15 16 17 18 19 21 24 25 0
27 28 29 30 31 32 33 34 35 36 37 -38 39 40 1 3 4 6 8 9 10 13 15 17 18 20 21 24 25 26 0
27 28 29 30 31 32 33 34 35 36 37 -38 39 40 1 3 4 6 8 9 10 15 16 17 18 20 21 24 25 0
27 28 29 30 31 32 33 34 35 36 37 -38 39 40 1 3 4 6 9 13 15 17 18 19 20 21 24 25 26 0
27 28 29 30 31 32 33 34 35 36 37 -38 39 40 1 3 4 6 9 15 16 17 18 19 20 21 24 25 0
27 28 29 30 31 32 33 34 35 36 37 -38 39 40 1 3 4 7 9 13 14 15 16 17 18 19 21 24 25 0
27 28 29 30 31 32 33 34 35 36 37 -38 39 40 1 3 4 9 13 14 15 17 18 19 20 21 24 25 26 0
27 28 29 30 31 32 33 34 35 36 37 -38 39 40 1 3 4 9 14 15 16 17 18 19 20 21 24 25 0
27 28 29 30 31 32 33 34 35 36 37 -38 39 40 1 3 6 7 8 9 10 13 15 17 18 21 24 25 26 0
27 28 29 30 31 32 33 34 35 36 37 -38 39 40 1 3 6 7 8 9 10 15 16 17 18 20 21 24 25 26 0
27 28 29 30 31 32 33 34 35 36 37 -38 39 40 1 3 6 7 9 13 15 17 18 19 21 24 25 26 0
27 28 29 30 31 32 33 34 35 36 37 -38 39 40 1 3 6 7 9 15 16 17 18 19 20 21 24 25 26 0
27 28 29 30 31 32 33 34 35 36 37 -38 39 40 1 3 7 9 13 14 15 17 18 19 21 24 25 26 0
27 28 29 30 31 32 33 34 35 36 37 -38 39 40 1 3 7 9 14 15 16 17 18 19 20 21 24 25 26 0
27 28 29 30 31 32 33 34 35 36 37 -38 39 40 1 4 6 7 8 9 10 13 15 16 17 18 21 23 24 25 0
27 28 29 30 31 32 33 34 35 36 37 -38 39 40 1 4 6 7 9 13 15 16 17 18 19 21 23 24 25 0
27 28 29 30 31 32 33 34 35 36 37 -38 39 40 1 4 6 8 9 10 13 15 17 18 20 21 23 24 25 26 0
27 28 29 30 31 32 33 34 35 36 37 -38 39 40 1 4 6 8 9 10 15 16 17 18 20 21 23 24 25 0
27 28 29 30 31 32 33 34 35 36 37 -38 39 40 1 4 6 9 13 15 17 18 19 20 21 23 24 25 26 0
27 28 29 30 31 32 33 34 35 36 37 -38 39 40 1 4 6 9 15 16 17 18 19 20 21 23 24 25 0
27 28 29 30 31 32 33 34 35 36 37 -38 39 40 1 6 7 8 9 10 13 15 17 18 21 23 24 25 26 0
27 28 29 30 31 32 33 34 35 36 37 -38 39 40 1 6 7 8 9 10 15 16 17 18 20 21 23 24 25 26 0
27 28 29 30 31 32 33 34 35 36 37 -38 39 40 1 6 7 9 13 15 17 18 19 21 23 24 25 26 0
27 28 29 30 31 32 33 34 35 36 37 -38 39 40 1 6 7 9 15 16 17 18 19 20 21 23 24 25 26 0
27 28 29 30 31 32 33 34 35 36 37 -38 39 40 2 3 4 7 8 9 10 13 14 15 16 17 18 21 25 0
27 28 29 30 31 32 33 34 35 36 37 -38 39 40 2 3 4 7 8 9 13 14 15 16 17 18 19 21 25 0
27 28 29 30 31 32 33 34 35 36 37 -38 39 40 2 3 4 8 9 10 13 14 15 17 18 20 21 25 26 0
27 28 29 30 31 32 33 34 35 36 37 -38 39 40 2 3 4 8 9 10 14 15 16 17 18 20 21 25 0
27 28 29 30 31 32 33 34 35 36 37 -38 39 40 2 3 4 8 9 13 14 15 17 18 19 20 21 25 26 0
27 28 29 30 31 32 33 34 35 36 37 -38 39 40 2 3 4 8 9 14 15 16 17 18 19 20 21 25 0
27 28 29 30 31 32 33 34 35 36 37 -38 39 40 2 3 7 8 9 10 13 14 15 17 18 21 25 26 0
27 28 29 30 31 32 33 34 35 36 37 -38 39 40 2 3 7 8 9 10 14 15 16 17 18 20 21 25 26 0
27 28 29 30 31 32 33 34 35 36 37 -38 39 40 2 3 7 8 9 13 14 15 17 18 19 21 25 26 0
27 28 29 30 31 32 33 34 35 36 37 -38 39 40 2 3 7 8 9 14 15 16 17 18 19 20 21 25 26 0
27 28 29 30 31 32 33 34 35 36 37 -38 39 40 2 4 6 7 8 9 10 13 14 15 16 17 18 21 23 25 0
27 28 29 30 31 32 33 34 35 36 37 -38 39 40 2 4 6 7 8 9 13 14 15 16 17 18 19 21 23 25 0
27 28 29 30 31 32 33 34 35 36 37 -38 39 40 2 4 6 8 9 10 13 14 15 17 18 20 21 23 25 26 0
27 28 29 30 31 32 33 34 35 36 37 -38 39 40 2 4 6 8 9 10 14 15 16 17 18 20 21 23 25 0
27 28 29 30 31 32 33 34 35 36 37 -38 39 40 2 4 6 8 9 13 14 15 17 18 19 20 21 23 25 26 0
27 28 29 30 31 32 33 34 35 36 37 -38 39 40 2 4 6 8 9 14 15 16 17 18 19 20 21 23 25 0
27 28 29 30 31 32 33 34 35 36 37 -38 39 40 2 6 7 8 9 10 13 14 15 17 18 21 23 25 26 0
27 28 29 30 31 32 33 34 35 36 37 -38 39 40 2 6 7 8 9 10 14 15 16 17 18 20 21 23 25 26 0
27 28 29 30 31 32 33 34 35 36 37 -38 39 40 2 6 7 8 9 13 14 15 17 18 19 21 23 25 26 0
27 28 29 30 31 32 33 34 35 36 37 -38 39 40 2 6 7 8 9 14 15 16 17 18 19 20 21 23 25 26 0
27 28 29 30 31 32 33 34 35 36 37 -38 39 40 3 4 7 8 9 10 13 14 15 16 17 18 21 24 25 0
27 28 29 30 31 32 33 34 35 36 37 -38 39 40 3 4 7 8 9 13 14 15 16 17 18 19 21 24 25 0
27 28 29 30 31 32 33 34 35 36 37 -38 39 40 3 4 8 9 10 13 14 15 17 18 20 21 24 25 26 0
27 28 29 30 31 32 33 34 35 36 37 -38 39 40 3 4 8 9 10 14 15 16 17 18 20 21 24 25 0
27 28 29 30 31 32 33 34 35 36 37 -38 39 40 3 4 8 9 13 14 15 17 18 19 20 21 24 25 26 0
27 28 29 30 31 32 33 34 35 36 37 -38 39 40 3 4 8 9 14 15 16 17 18 19 20 21 24 25 0
27 28 29 30 31 32 33 34 35 36 37 -38 39 40 3 7 8 9 10 13 14 15 17 18 21 24 25 26 0
27 28 29 30 31 32 33 34 35 36 37 -38 39 40 3 7 8 9 10 14 15 16 17 18 20 21 24 25 26 0
27 28 29 30 31 32 33 34 35 36 37 -38 39 40 3 7 8 9 13 14 15 17 18 19 21 24 25 26 0
27 28 29 30 31 32 33 34 35 36 37 -38 39 40 3 7 8 9 14 15 16 17 18 19 20 21 24 25 26 0
27 28 29 30 31 32 33 34 35 36 37 -38 39 40 4 6 7 8 9 10 13 14 15 16 17 18 21 23 24 25 0
27 28 29 30 31 32 33 34 35 36 37 -38 39 40 4 6 7 8 9 13 14 15 16 17 18 19 21 23 24 25 0
27 28 29 30 31 32 33 34 35 36 37 -38 39 40 4 6 8 9 10 13 14 15 17 18 20 21 23 24 25 26 0
27 28 29 30 31 32 33 34 35 36 37 -38 39 40 4 6 8 9 10 14 15 16 17 18 20 21 23 24 25 0
27 28 29 30 31 32 33 34 35 36 37 -38 39 40 4 6 8 9 13 14 15 17 18 19 20 21 23 24 25 26 0
27 28 29 30 31 32 33 34 35 36 37 -38 39 40 4 6 8 9 14 15 16 17 18 19 20 21 23 24 25 0
27 28 29 30 31 32 33 34 35 36 37 -38 39 40 6 7 8 9 10 13 14 15 17 18 21 23 24 25 26 0
27 28 29 30 31 32 33 34 35 36 37 -38 39 40 6 7 8 9 10 14 15 16 17 18 20 21 23 24 25 26 0
27 28 29 30 31 32 33 34 35 36 37 -38 39 40 6 7 8 9 13 14 15 17 18 19 21 23 24 25 26 0
27 28 29 30 31 32 33 34 35 36 37 -38 39 40 6 7 8 9 14 15 16 17 18 19 20 21 23 24 25 26 0
-27 28 29 30 31 32 33 34 35 36 37 -38 39 40 2 4 7 9 13 14 15 16 17 18 19 21 23 25 0
-27 28 29 30 31 32 33 34 35 36 37 -38 39 40 2 4 9 13 14 15 17 18 19 20 21 23 25 26 0
-27 28 29 30 31 32 33 34 35 36 37 -38 39 40 2 4 9 14 15 16 17 18 19 20 21 23 25 0
-27 28 29 30 31 32 33 34 35 36 37 -38 39 40 2 7 9 13 14 15 17 18 19 21 23 25 26 0
-27 28 29 30 31 32 33 34 35 36 37 -38 39 40 2 7 9 14 15 16 17 18 19 20 21 23 25 26 0
-27 28 29 30 31 32 33 34 35 36 37 -38 39 40 4 7 9 13 14 15 16 17 18 19 21 23 24 25 0
-27 28 29 30 31 32 33 34 35 36 37 -38 39 40 4 9 13 14 15 17 18 19 20 21 23 24 25 26 0
-27 28 29 30 31 32 33 34 35 36 37 -38 39 40 4 9 14 15 16 17 18 19 20 21 23 24 25 0
-27 28 29 30 31 32 33 34 35 36 37 -38 39 40 7 9 13 14 15 17 18 19 21 23 24 25 26 0
-27 28 29 30 31 32 33 34 35 36 37 -38 39 40 7 9 14 15 16 17 18 19 20 21 23 24 25 26 0
27 28 29 -30 31 32 33 34 35 36 37 -38 39 40 1 4 6 7 8 9 10 13 15 16 17 18 21 25 0
27 28 29 -30 31 32 33 34 35 36 37 -38 39 40 1 4 6 7 9 13 15 16 17 18 19 21 25 0
27 28 29 -30 31 32 33 34 35 36 37 -38 39 40 1 4 6 8 9 10 13 15 17 18 20 21 25 26 0
27 28 29 -30 31 32 33 34 35 36 37 -38 39 40 1 4 6 8 9 10 15 16 17 18 20 21 25 0
27 28 29 -30 31 32 33 34 35 36 37 -38 39 40 1 4 6 9 13 15 17 18 19 20 21 25 26 0
27 28 29 -30 31 32 33 34 35 36 37 -38 39 40 1 4 6 9 15 16 17 18 19 20 21 25 0
27 28 29 -30 31 32 33 34 35 36 37 -38 39 40 1 6 7 8 9 10 13 15 17 18 21 25 26 0
27 28 29 -30 31 32 33 34 35 36 37 -38 39 40 1 6 7 8 9 10 15 16 17 18 20 21 25 26 0
27 28 29 -30 31 32 33 34 35 36 37 -38 39 40 1 6 7 9 13 15 17 18 19 21 25 26 0
27 28 29 -30 31 32 33 34 35 36 37 -38 39 40 1 6 7 9 15 16 17 18 19 20 21 25 26 0
27 28 29 -30 31 32 33 34 35 36 37 -38 39 40 4 6 7 8 9 10 13 14 15 16 17 18 21 25 0
27 28 29 -30 31 32 33 34 35 36 37 -38 39 40 4 6 7 8 9 13 14 15 16 17 18 19 21 25 0
27 28 29 -30 31 32 33 34 35 36 37 -38 39 40 4 6 8 9 10 13 14 15 17 18 20 21 25 26 0
27 28 29 -30 31 32 33 34 35 36 37 -38 39 40 4 6 8 9 10 14 15 16 17 18 20 21 25 0
27 28 29 -30 31 32 33 34 35 36 37 -38 39 40 4 6 8 9 13 14 15 17 18 19 20 21 25 26 0
27 28 29 -30 31 32 33 34 35 36 37 -38 39 40 4 6 8 9 14 15 16 17 18 19 20 21 25 0
27 28 29 -30 31 32 33 34 35 36 37 -38 39 40 6 7 8 9 10 13 14 15 17 18 21 25 26 0
27 28 29 -30 31 32 33 34 35 36 37 -38 39 40 6 7 8 9 10 14 15 16 17 18 20 21 25 26 0
27 28 29 -30 31 32 33 34 35 36 37 -38 39 40 6 7 8 9 13 14 15 17 18 19 21 25 26 0
27 28 29 -30 31 32 33 34 35 36 37 -38 39 40 6 7 8 9 14 15 16 17 18 19 20 21 25 26 0
-27 28 29 -30 31 32 33 34 35 36 37 -38 39 40 4 7 9 13 14 15 16 17 18 19 21 25 0
-27 28 29 -30 31 32 33 34 35 36 37 -38 39 40 4 9 13 14 15 17 18 19 20 21 25 26 0
-27 28 29 -30 31 32 33 34 35 36 37 -38 39 40 4 9 14 15 16 17 18 19 20 21 25 0
-27 28 29 -30 31 32 33 34 35 36 37 -38 39 40 7 9 13 14 15 17 18 19 21 25 26 0
-27 28 29 -30 31 32 33 34 35 36 37 -38 39 40 7 9 14 15 16 17 18 19 20 21 25 26 0
27 28 29 30 31 32 -33 34 35 36 37 -38 39 40 1 2 3 4 7 8 9 10 15 16 17 18 21 25 0
27 28 29 30 31 32 -33 34 35 36 37 -38 39 40 1 2 3 4 7 9 15 16 17 18 19 21 25 0
27 28 29 30 31 32 -33 34 35 36 37 -38 39 40 1 2 3 7 8 9 10 15 16 17 18 21 25 26 0
27 28 29 30 31 32 -33 34 35 36 37 -38 39 40 1 2 3 7 9 15 16 17 18 19 21 25 26 0
27 28 29 30 31 32 -33 34 35 36 37 -38 39 40 1 3 4 7 8 9 10 15 16 17 18 21 24 25 0
27 28 29 30 31 32 -33 34 35 36 37 -38 39 40 1 3 4 7 9 15 16 17 18 19 21 24 25 0
27 28 29 30 31 32 -33 34 35 36 37 -38 39 40 1 3 7 8 9 10 15 16 17 18 21 24 25 26 0
27 28 29 30 31 32 -33 34 35 36 37 -38 39 40 1 3 7 9 15 16 17 18 19 21 24 25 26 0
27 28 29 30 31 32 33 -34 35 36 37 -38 39 40 1 2 3 4 6 9 10 13 15 16 17 18 21 25 0
27 28 29 30 31 32 33 -34 35 36 37 -38 39 40 1 2 3 4 6 9 10 13 15 17 18 21 25 26 0
27 28 29 30 31 32 33 -34 35 36 37 -38 39 40 1 2 3 4 9 10 13 14 15 16 17 18 21 25 0
27 28 29 30 31 32 33 -34 35 36 37 -38 39 40 1 2 3 4 9 10 13 14 15 17 18 21 25 26 0
27 28 29 30 31 32 33 -34 35 36 37 -38 39 40 1 2 4 6 9 10 13 15 16 17 18 21 23 25 0
27 28 29 30 31 32 33 -34 35 36 37 -38 39 40 1 2 4 6 9 10 13 15 17 18 21 23 25 26 0
27 28 29 30 31 32 33 -34 35 36 37 -38 39 40 1 3 4 6 9 10 13 15 16 17 18 21 24 25 0
27 28 29 30 31 32 33 -34 35 36 37 -38 39 40 1 3 4 6 9 10 13 15 17 18 21 24 25 26 0
27 28 29 30 31 32 33 -34 35 36 37 -38 39 40 1 3 4 9 10 13 14 15 16 17 18 21 24 25 0
27 28 29 30 31 32 33 -34 35 36 37 -38 39 40 1 3 4 9 10 13 14 15 17 18 21 24 25 26 0
27 28 29 30 31 32 33 -34 35 36 37 -38 39 40 1 4 6 9 10 13 15 16 17 18 21 23 24 25 0
27 28 29 30 31 32 33 -34 35 36 37 -38 39 40 1 4 6 9 10 13 15 17 18 21 23 24 25 26 0
-27 28 29 30 31 32 33 -34 35 36 37 -38 39 40 2 4 9 10 13 14 15 16 17 18 21 23 25 0
-27 28 29 30 31 32 33 -34 35 36 37 -38 39 40 2 4 9 10 13 14 15 17 18 21 23 25 26 0
-27 28 29 30 31 32 33 -34 35 36 37 -38 39 40 4 9 10 13 14 15 16 17 18 21 23 24 25 0
-27 28 29 30 31 32 33 -34 35 36 37 -38 39 40 4 9 10 13 14 15 17 18 21 23 24 25 26 0
27 28 29 -30 31 32 33 -34 35 36 37 -38 39 40 1 4 6 9 10 13 15 16 17 18 21 25 0
27 28 29 -30 31 32 33 -34 35 36 37 -38 39 40 1 4 6 9 10 13 15 17 18 21 25 26 0
-27 28 29 -30 31 32 33 -34 35 36 37 -38 39 40 4 9 10 13 14 15 16 17 18 21 25 0
-27 28 29 -30 31 32 33 -34 35 36 37 -38 39 40 4 9 10 13 14 15 17 18 21 25 26 0
27 28 29 30 31 32 -33 -34 35 36 37 -38 39 40 1 2 3 4 9 10 15 16 17 18 21 25 0
27 28 29 30 31 32 -33 -34 35 36 37 -38 39 40 1 3 4 9 10 15 16 17 18 21 24 25 0
27 28 29 30 31 32 33 34 35 -36 37 -38 39 40 1 2 3 4 5 6 7 8 9 13 15 16 17 18 25 0
27 28 29 30 31 32 33 34 35 -36 37 -38 39 40 1 2 3 4 5 6 8 9 13 15 17 18 20 25 26 0
27 28 29 30 31 32 33 34 35 -36 37 -38 39 40 1 2 3 4 5 6 8 9 15 16 17 18 20 25 0
27 28 29 30 31 32 33 34 35 -36 37 -38 39 40 1 2 3 5 6 7 8 9 13 15 17 18 25 26 0
27 28 29 30 31 32 33 34 35 -36 37 -38 39 40 1 2 3 5 6 7 8 9 15 16 17 18 20 25 26 0
27 28 29 30 31 32 33 34 35 -36 37 -38 39 40 1 2 4 5 6 7 8 9 13 15 16 17 18 23 25 0
27 28 29 30 31 32 33 34 35 -36 37 -38 39 40 1 2 4 5 6 8 9 13 15 17 18 20 23 25 26 0
27 28 29 30 31 32 33 34 35 -36 37 -38 39 40 1 2 4 5 6 8 9 15 16 17 18 20 23 25 0
27 28 29 30 31 32 33 34 35 -36 37 -38 39 40 1 2 5 6 7 8 9 13 15 17 18 23 25 26 0
27 28 29 30 31 32 33 34 35 -36 37 -38 39 40 1 2 5 6 7 8 9 15 16 17 18 20 23 25 26 0
27 28 29 30 31 32 33 34 35 -36 37 -38 39 40 1 3 4 5 6 7 8 9 13 15 16 17 18 24 25 0
27 28 29 30 31 32 33 34 35 -36 37 -38 39 40 1 3 4 5 6 8 9 13 15 17 18 20 24 25 26 0
27 28 29 30 31 32 33 34 35 -36 37 -38 39 40 1 3 4 5 6 8 9 15 16 17 18 20 24 25 0
27 28 29 30 31 32 33 34 35 -36 37 -38 39 40 1 3 5 6 7 8 9 13 15 17 18 24 25 26 0
27 28 29 30 31 32 33 34 35 -36 37 -38 39 40 1 3 5 6 7 8 9 15 16 17 18 20 24 25 26 0
27 28 29 30 31 32 33 34 35 -36 37 -38 39 40 1 4 5 6 7 8 9 13 15 16 17 18 23 24 25 0
27 28 29 30 31 32 33 34 35 -36 37 -38 39 40 1 4 5 6 8 9 13 15 17 18 20 23 24 25 26 0
27 28 29 30 31 32 33 34 35 -36 37 -38 39 40 1 4 5 6 8 9 15 16 17 18 20 23 24 25 0
27 28 29 30 31 32 33 34 35 -36 37 -38 39 40 1 5 6 7 8 9 13 15 17 18 23 24 25 26 0
27 28 29 30 31 32 33 34 35 -36 37 -38 39 40 1 5 6 7 8 9 15 16 17 18 20 23 24 25 26 0
27 28 29 30 31 32 33 34 35 -36 37 -38 39 40 2 3 4 5 7 8 9 13 14 15 16 17 18 25 0
27 28 29 30 31 32 33 34 35 -36 37 -38 39 40 2 3 4 5 8 9 13 14 15 17 18 20 25 26 0
27 28 29 30 31 32 33 34 35 -36 37 -38 39 40 2 3 4 5 8 9 14 15 16 17 18 20 25 0
27 28 29 30 31 32 33 34 35 -36 37 -38 39 40 2 3 5 7 8 9 13 14 15 17 18 25 26 0
27 28 29 30 31 32 33 34 35 -36 37 -38 39 40 2 3 5 7 8 9 14 15 16 17 18 20 25 26 0
27 28 29 30 31 32 33 34 35 -36 37 -38 39 40 2 4 5 6 7 8 9 13 14 15 16 17 18 23 25 0
27 28 29 30 31 32 33 34 35 -36 37 -38 39 40 2 4 5 6 8 9 13 14 15 17 18 20 23 25 26 0
27 28 29 30 31 32 33 34 35 -36 37 -38 39 40 2 4 5 6 8 9 14 15 16 17 18 20 23 25 0
27 28 29 30 31 32 33 34 35 -36 37 -38 39 40 2 5 6 7 8 9 13 14 15 17 18 23 25 26 0
27 28 29 30 31 32 33 34 35 -36 37 -38 39 40 2 5 6 7 8 9 14 15 16 17 18 20 23 25 26 0
27 28 29 30 31 32 33 34 35 -36 37 -38 39 40 3 4 5 7 8 9 13 14 15 16 17 18 24 25 0
27 28 29 30 31 32 33 34 35 -36 37 -38 39 40 3 4 5 8 9 13 14 15 17 18 20 24 25 26 0
27 28 29 30 31 32 33 34 35 -36 37 -38 39 40 3 4 5 8 9 14 15 16 17 18 20 24 25 0
27 28 29 30 31 32 33 34 35 -36 37 -38 39 40 3 5 7 8 9 13 14 15 17 18 24 25 26 0
27 28 29 30 31 32 33 34 35 -36 37 -38 39 40 3 5 7 8 9 14 15 16 17 18 20 24 25 26 0
27 28 29 30 31 32 33 34 35 -36 37 -38 39 40 4 5 6 7 8 9 13 14 15 16 17 18 23 24 25 0
27 28 29 30 31 32 33 34 35 -36 37 -38 39 40 4 5 6 8 9 13 14 15 17 18 20 23 24 25 26 0
27 28 29 30 31 32 33 34 35 -36 37 -38 39 40 4 5 6 8 9 14 15 16 17 18 20 23 24 25 0
27 28 29 30 31 32 33 34 35 -36 37 -38 39 40 5 6 7 8 9 13 14 15 17 18 23 24 25 26 0
27 28 29 30 31 32 33 34 35 -36 37 -38 39 40 5 6 7 8 9 14 15 16 17 18 20 23 24 25 26 0
27 28 29 -30 31 32 33 34 35 -36 37 -38 39 40 1 4 5 6 7 8 9 13 15 16 17 18 25 0
27 28 29 -30 31 32 33 34 35 -36 37 -38 39 40 1 4 5 6 8 9 13 15 17 18 20 25 26 0
27 28 29 -30 31 32 33 34 35 -36 37 -38 39 40 1 4 5 6 8 9 15 16 17 18 20 25 0
27 28 29 -30 31 32 33 34 35 -36 37 -38 39 40 1 5 6 7 8 9 13 15 17 18 25 26 0
27 28 29 -30 31 32 33 34 35 -36 37 -38 39 40 1 5 6 7 8 9 15 16 17 18 20 25 26 0
27 28 29 -30 31 32 33 34 35 -36 37 -38 39 40 4 5 6 7 8 9 13 14 15 16 17 18 25 0
27 28 29 -30 31 32 33 34 35 -36 37 -38 39 40 4 5 6 8 9 13 14 15 17 18 20 25 26 0
27 28 29 -30 31 32 33 34 35 -36 37 -38 39 40 4 5 6 8 9 14 15 16 17 18 20 25 0
27 28 29 -30 31 32 33 34 35 -36 37 -38 39 40 5 6 7 8 9 13 14 15 17 18 25 26 0
27 28 29 -30 31 32 33 34 35 -36 37 -38 39 40 5 6 7 8 9 14 15 16 17 18 20 25 26 0
27 28 29 30 31 -32 33 34 35 -36 37 -38 39 40 1 2 3 4 6 7 8 13 15 16 17 18 25 0
27 28 29 30 31 -32 33 34 35 -36 37 -38 39 40 1 2 3 4 6 8 13 15 17 18 20 25 26 0
27 28 29 30 31 -32 33 34 35 -36 37 -38 39 40 1 2 3 4 6 8 15 16 17 18 20 25 0
27 28 29 30 31 -32 33 34 35 -36 37 -38 39 40 1 2 3 6 7 8 13 15 17 18 25 26 0
27 28 29 30 31 -32 33 34 35 -36 37 -38 39 40 1 2 3 6 7 8 15 16 17 18 20 25 26 0
27 28 29 30 31 -32 33 34 35 -36 37 -38 39 40 1 2 4 6 7 8 13 15 16 17 18 23 25 0
27 28 29 30 31 -32 33 34 35 -36 37 -38 39 40 1 2 4 6 8 13 15 17 18 20 23 25 26 0
27 28 29 30 31 -32 33 34 35 -36 37 -38 39 40 1 2 4 6 8 15 16 17 18 20 23 25 0
27 28 29 30 31 -32 33 34 35 -36 37 -38 39 40 1 2 6 7 8 13 15 17 18 23 25 26 0
27 28 29 30 31 -32 33 34 35 -36 37 -38 39 40 1 2 6 7 8 15 16 17 18 20 23 25 26 0
27 28 29 30 31 -32 33 34 35 -36 37 -38 39 40 2 3 4 7 8 13 14 15 16 17 18 25 0
27 28 29 30 31 -32 33 34 35 -36 37 -38 39 40 2 3 4 8 13 14 15 17 18 20 25 26 0
27 28 29 30 31 -32 33 34 35 -36 37 -38 39 40 2 3 4 8 14 15 16 17 18 20 25 0
27 28 29 30 31 -32 33 34 35 -36 37 -38 39 40 2 3 7 8 13 14 15 17 18 25 26 0
27 28 29 30 31 -32 33 34 35 -36 37 -38 39 40 2 3 7 8 14 15 16 17 18 20 25 26 0
27 28 29 30 31 -32 33 34 35 -36 37 -38 39 40 2 4 6 7 8 13 14 15 16 17 18 23 25 0
27 28 29 30 31 -32 33 34 35 -36 37 -38 39 40 2 4 6 8 13 14 15 17 18 20 23 25 26 0
27 28 29 30 31 -32 33 34 35 -36 37 -38 39 40 2 4 6 8 14 15 16 17 18 20 23 25 0
27 28 29 30 31 -32 33 34 35 -36 37 -38 39 40 2 6 7 8 13 14 15 17 18 23 25 26 0
27 28 29 30 31 -32 33 34 35 -36 37 -38 39 40 2 6 7 8 14 15 16 17 18 20 23 25 26 0
27 28 -29 30 31 -32 33 34 35 -36 37 -38 39 40 1 3 6 8 13 15 17 18 20 24 25 26 0
27 28 -29 30 31 -32 33 34 35 -36 37 -38 39 40 1 3 6 8 15 16 17 18 20 24 25 26 0
27 28 -29 30 31 -32 33 34 35 -36 37 -38 39 40 1 6 8 13 15 17 18 20 23 24 25 26 0
27 28 -29 30 31 -32 33 34 35 -36 37 -38 39 40 1 6 8 15 16 17 18 20 23 24 25 26 0
27 28 -29 30 31 -32 33 34 35 -36 37 -38 39 40 3 8 13 14 15 17 18 20 24 25 26 0
27 28 -29 30 31 -32 33 34 35 -36 37 -38 39 40 3 8 14 15 16 17 18 20 24 25 26 0
27 28 -29 30 31 -32 33 34 35 -36 37 -38 39 40 6 8 13 14 15 17 18 20 23 24 25 26 0
27 28 -29 30 31 -32 33 34 35 -36 37 -38 39 40 6 8 14 15 16 17 18 20 23 24 25 26 0
27 28 -29 -30 31 -32 33 34 35 -36 37 -38 39 40 1 6 8 13 15 17 18 20 25 26 0
27 28 -29 -30 31 -32 33 34 35 -36 37 -38 39 40 1 6 8 15 16 17 18 20 25 26 0
27 28 -29 -30 31 -32 33 34 35 -36 37 -38 39 40 6 8 13 14 15 17 18 20 25 26 0
27 28 -29 -30 31 -32 33 34 35 -36 37 -38 39 40 6 8 14 15 16 17 18 20 25 26 0
27 28 29 30 31 32 -33 34 35 -36 37 -38 39 40 1 2 3 4 5 7 8 9 15 16 17 18 25 0
27 28 29 30 31 32 -33 34 35 -36 37 -38 39 40 1 2 3 5 7 8 9 15 16 17 18 25 26 0
27 28 29 30 31 32 -33 34 35 -36 37 -38 39 40 1 3 4 5 7 8 9 15 16 17 18 24 25 0
27 28 29 30 31 32 -33 34 35 -36 37 -38 39 40 1 3 5 7 8 9 15 16 17 18 24 25 26 0
27 28 29 30 31 -32 -33 34 35 -36 37 -38 39 40 1 2 3 4 7 8 15 16 17 18 25 0
27 28 29 30 31 -32 -33 34 35 -36 37 -38 39 40 1 2 3 7 8 15 16 17 18 25 26 0
27 28 29 30 31 32 33 -34 35 -36 37 -38 39 40 1 2 3 4 5 6 9 13 15 16 17 18 25 0
27 28 29 30 31 32 33 -34 35 -36 37 -38 39 40 1 2 3 4 5 6 9 13 15 17 18 25 26 0
27 28 29 30 31 32 33 -34 35 -36 37 -38 39 40 1 2 3 4 5 9 13 14 15 16 17 18 25 0
27 28 29 30 31 32 33 -34 35 -36 37 -38 39 40 1 2 3 4 5 9 13 14 15 17 18 25 26 0
27 28 29 30 31 32 33 -34 35 -36 37 -38 39 40 1 2 4 5 6 9 13 15 16 17 18 23 25 0
27 28 29 30 31 32 33 -34 35 -36 37 -38 39 40 1 2 4 5 6 9 13 15 17 18 23 25 26 0
27 28 29 30 31 32 33 -34 35 -36 37 -38 39 40 1 3 4 5 6 9 13 15 16 17 18 24 25 0
27 28 29 30 31 32 33 -34 35 -36 37 -38 39 40 1 3 4 5 6 9 13 15 17 18 24 25 26 0
27 28 29 30 31 32 33 -34 35 -36 37 -38 39 40 1 3 4 5 9 13 14 15 16 17 18 24 25 0
27 28 29 30 31 32 33 -34 35 -36 37 -38 39 40 1 3 4 5 9 13 14 15 17 18 24 25 26 0
27 28 29 30 31 32 33 -34 35 -36 37 -38 39 40 1 4 5 6 9 13 15 16 17 18 23 24 25 0
27 28 29 30 31 32 33 -34 35 -36 37 -38 39 40 1 4 5 6 9 13 15 17 18 23 24 25 26 0
-27 28 29 30 31 32 33 -34 35 -36 37 -38 39 40 2 4 5 9 13 14 15 16 17 18 23 25 0
-27 28 29 30 31 32 33 -34 35 -36 37 -38 39 40 2 4 5 9 13 14 15 17 18 23 25 26 0
-27 28 29 30 31 32 33 -34 35 -36 37 -38 39 40 4 5 9 13 14 15 16 17 18 23 24 25 0
-27 28 29 30 31 32 33 -34 35 -36 37 -38 39 40 4 5 9 13 14 15 17 18 23 24 25 26 0
27 28 29 -30 31 32 33 -34 35 -36 37 -38 39 40 1 4 5 6 9 13 15 16 17 18 25 0
27 28 29 -30 31 32 33 -34 35 -36 37 -38 39 40 1 4 5 6 9 13 15 17 18 25 26 0
-27 28 29 -30 31 32 33 -34 35 -36 37 -38 39 40 4 5 9 13 14 15 16 17 18 25 0
-27 28 29 -30 31 32 33 -34 35 -36 37 -38 39 40 4 5 9 13 14 15 17 18 25 26 0
27 28 29 30 31 -32 33 -34 35 -36 37 -38 39 40 1 2 3 4 6 13 15 16 17 18 25 0
27 28 29 30 31 -32 33 -34 35 -36 37 -38 39 40 1 2 3 4 6 13 15 17 18 25 26 0
27 28 29 30 31 -32 33 -34 35 -36 37 -38 39 40 1 2 3 4 13 14 15 16 17 18 25 0
27 28 29 30 31 -32 33 -34 35 -36 37 -38 39 40 1 2 3 4 13 14 15 17 18 25 26 0
27 28 29 30 31 -32 33 -34 35 -36 37 -38 39 40 1 2 4 6 13 15 16 17 18 23 25 0
27 28 29 30 31 -32 33 -34 35 -36 37 -38 39 40 1 2 4 6 13 15 17 18 23 25 26 0
-27 28 29 30 31 -32 33 -34 35 -36 37 -38 39 40 2 4 13 14 15 16 17 18 23 25 0
-27 28 29 30 31 -32 33 -34 35 -36 37 -38 39 40 2 4 13 14 15 17 18 23 25 26 0
27 28 -29 30 31 -32 33 -34 35 -36 37 -38 39 40 1 3 6 13 15 17 18 24 25 26 0
27 28 -29 30 31 -32 33 -34 35 -36 37 -38 39 40 1 3 13 14 15 17 18 24 25 26 0
27 28 -29 30 31 -32 33 -34 35 -36 37 -38 39 40 1 6 13 15 17 18 23 24 25 26 0
-27 28 -29 30 31 -32 33 -34 35 -36 37 -38 39 40 13 14 15 17 18 23 24 25 26 0
27 28 -29 -30 31 -32 33 -34 35 -36 37 -38 39 40 1 6 13 15 17 18 25 26 0
-27 28 -29 -30 31 -32 33 -34 35 -36 37 -38 39 40 13 14 15 17 18 25 26 0
27 28 29 30 31 32 -33 -34 35 -36 37 -38 39 40 1 2 3 4 5 9 15 16 17 18 25 0
27 28 29 30 31 32 -33 -34 35 -36 37 -38 39 40 1 3 4 5 9 15 16 17 18 24 25 0
27 28 29 30 31 -32 -33 -34 35 -36 37 -38 39 40 1 2 3 4 15 16 17 18 25 0
27 28 -29 30 31 -32 -33 -34 35 -36 37 -38 39 40 1 3 15 16 17 18 24 25 26 0
27 28 29 30 31 32 33 34 35 36 -37 -38 39 40 1 3 4 6 8 9 10 15 17 20 21 24 25 26 0
27 28 29 30 31 32 33 34 35 36 -37 -38 39 40 1 3 4 6 9 15 17 19 20 21 24 25 26 0
27 28 29 30 31 32 33 34 35 36 -37 -38 39 40 1 3 4 9 14 15 17 19 20 21 24 25 26 0
27 28 29 30 31 32 33 34 35 36 -37 -38 39 40 1 3 6 7 8 9 10 15 17 20 21 24 25 26 0
27 28 29 30 31 32 33 34 35 36 -37 -38 39 40 1 3 6 7 9 15 17 19 20 21 24 25 26 0
27 28 29 30 31 32 33 34 35 36 -37 -38 39 40 1 3 7 9 14 15 17 19 20 21 24 25 26 0
27 28 29 30 31 32 33 34 35 36 -37 -38 39 40 1 4 6 8 9 10 15 17 20 21 23 24 25 26 0
27 28 29 30 31 32 33 34 35 36 -37 -38 39 40 1 4 6 9 15 17 19 20 21 23 24 25 26 0
27 28 29 30 31 32 33 34 35 36 -37 -38 39 40 1 6 7 8 9 10 15 17 20 21 23 24 25 26 0
27 28 29 30 31 32 33 34 35 36 -37 -38 39 40 1 6 7 9 15 17 19 20 21 23 24 25 26 0
27 28 29 30 31 32 33 34 35 36 -37 -38 39 40 3 4 8 9 10 14 15 17 20 21 24 25 26 0
27 28 29 30 31 32 33 34 35 36 -37 -38 39 40 3 4 8 9 14 15 17 19 20 21 24 25 26 0
27 28 29 30 31 32 33 34 35 36 -37 -38 39 40 3 7 8 9 10 14 15 17 20 21 24 25 26 0
27 28 29 30 31 32 33 34 35 36 -37 -38 39 40 3 7 8 9 14 15 17 19 20 21 24 25 26 0
27 28 29 30 31 32 33 34 35 36 -37 -38 39 40 4 6 8 9 10 14 15 17 20 21 23 24 25 26 0
27 28 29 30 31 32 33 34 35 36 -37 -38 39 40 4 6 8 9 14 15 17 19 20 21 23 24 25 26 0
27 28 29 30 31 32 33 34 35 36 -37 -38 39 40 6 7 8 9 10 14 15 17 20 21 23 24 25 26 0
27 28 29 30 31 32 33 34 35 36 -37 -38 39 40 6 7 8 9 14 15 17 19 20 21 23 24 25 26 0
-27 28 29 30 31 32 33 34 35 36 -37 -38 39 40 4 9 14 15 17 19 20 21 23 24 25 26 0
-27 28 29 30 31 32 33 34 35 36 -37 -38 39 40 7 9 14 15 17 19 20 21 23 24 25 26 0
27 -28 29 30 31 32 33 34 35 36 -37 -38 39 40 2 3 4 6 8 9 10 15 17 20 21 25 26 0
27 -28 29 30 31 32 33 34 35 36 -37 -38 39 40 2 3 4 6 8 9 15 17 19 20 21 25 26 0
27 -28 29 30 31 32 33 34 35 36 -37 -38 39 40 2 3 6 7 8 9 10 15 17 20 21 25 26 0
27 -28 29 30 31 32 33 34 35 36 -37 -38 39 40 2 3 6 7 8 9 15 17 19 20 21 25 26 0
27 -28 29 30 31 32 33 34 35 36 -37 -38 39 40 2 4 6 8 9 10 15 17 20 21 23 25 26 0
27 -28 29 30 31 32 33 34 35 36 -37 -38 39 40 2 4 6 8 9 15 17 19 20 21 23 25 26 0
27 -28 29 30 31 32 33 34 35 36 -37 -38 39 40 2 6 7 8 9 10 15 17 20 21 23 25 26 0
27 -28 29 30 31 32 33 34 35 36 -37 -38 39 40 2 6 7 8 9 15 17 19 20 21 23 25 26 0
27 -28 29 -30 31 32 33 34 35 36 -37 -38 39 40 4 6 8 9 10 15 17 20 21 25 26 0
27 -28 29 -30 31 32 33 34 35 36 -37 -38 39 40 4 6 8 9 15 17 19 20 21 25 26 0
27 -28 29 -30 31 32 33 34 35 36 -37 -38 39 40 6 7 8 9 10 15 17 20 21 25 26 0
27 -28 29 -30 31 32 33 34 35 36 -37 -38 39 40 6 7 8 9 15 17 19 20 21 25 26 0
27 28 29 30 31 32 -33 34 35 36 -37 -38 39 40 1 3 7 8 9 10 15 17 21 24 25 26 0
27 28 29 30 31 32 -33 34 35 36 -37 -38 39 40 1 3 7 9 15 17 19 21 24 25 26 0
27 -28 29 30 31 32 -33 34 35 36 -37 -38 39 40 2 3 7 8 9 10 15 17 21 25 26 0
27 -28 29 30 31 32 -33 34 35 36 -37 -38 39 40 2 3 7 8 9 15 17 19 21 25 26 0
-27 -28 29 30 31 32 -33 34 35 36 -37 -38 39 40 2 7 9 15 17 19 21 23 25 26 0
-27 -28 29 -30 31 32 -33 34 35 36 -37 -38 39 40 7 9 15 17 19 21 25 26 0
27 28 29 30 31 32 -33 -34 35 36 -37 -38 39 40 1 3 4 9 10 15 17 21 24 25 26 0
-27 -28 29 30 31 32 -33 -34 35 36 -37 -38 39 40 2 4 9 10 15 17 21 23 25 26 0
-27 -28 29 -30 31 32 -33 -34 35 36 -37 -38 39 40 4 9 10 15 17 21 25 26 0
27 28 29 30 31 32 33 34 35 -36 -37 -38 39 40 1 3 4 5 6 8 9 15 17 20 24 25 26 0
27 28 29 30 31 32 33 34 35 -36 -37 -38 39 40 1 3 5 6 7 8 9 15 17 20 24 25 26 0
27 28 29 30 31 32 33 34 35 -36 -37 -38 39 40 1 4 5 6 8 9 15 17 20 23 24 25 26 0
27 28 29 30 31 32 33 34 35 -36 -37 -38 39 40 1 5 6 7 8 9 15 17 20 23 24 25 26 0
27 28 29 30 31 32 33 34 35 -36 -37 -38 39 40 3 4 5 8 9 14 15 17 20 24 25 26 0
27 28 29 30 31 32 33 34 35 -36 -37 -38 39 40 3 5 7 8 9 14 15 17 20 24 25 26 0
27 28 29 30 31 32 33 34 35 -36 -37 -38 39 40 4 5 6 8 9 14 15 17 20 23 24 25 26 0
27 28 29 30 31 32 33 34 35 -36 -37 -38 39 40 5 6 7 8 9 14 15 17 20 23 24 25 26 0
27 -28 29 30 31 32 33 34 35 -36 -37 -38 39 40 2 3 4 5 6 8 9 15 17 20 25 26 0
27 -28 29 30 31 32 33 34 35 -36 -37 -38 39 40 2 3 5 6 7 8 9 15 17 20 25 26 0
27 -28 29 30 31 32 33 34 35 -36 -37 -38 39 40 2 4 5 6 8 9 15 17 20 23 25 26 0
27 -28 29 30 31 32 33 34 35 -36 -37 -38 39 40 2 5 6 7 8 9 15 17 20 23 25 26 0
27 -28 29 -30 31 32 33 34 35 -36 -37 -38 39 40 4 5 6 8 9 15 17 20 25 26 0
27 -28 29 -30 31 32 33 34 35 -36 -37 -38 39 40 5 6 7 8 9 15 17 20 25 26 0
27 28 29 30 31 -32 33 34 35 -36 -37 -38 39 40 1 2 3 4 6 8 15 17 20 24 25 26 0
27 28 29 30 31 -32 33 34 35 -36 -37 -38 39 40 1 2 3 6 7 8 15 17 20 24 25 26 0
27 28 29 30 31 -32 33 34 35 -36 -37 -38 39 40 1 2 4 6 8 15 17 20 23 24 25 26 0
27 28 29 30 31 -32 33 34 35 -36 -37 -38 39 40 1 2 6 7 8 15 17 20 23 24 25 26 0
27 28 29 30 31 -32 33 34 35 -36 -37 -38 39 40 2 3 4 8 14 15 17 20 24 25 26 0
27 28 29 30 31 -32 33 34 35 -36 -37 -38 39 40 2 3 7 8 14 15 17 20 24 25 26 0
27 28 29 30 31 -32 33 34 35 -36 -37 -38 39 40 2 4 6 8 14 15 17 20 23 24 25 26 0
27 28 29 30 31 -32 33 34 35 -36 -37 -38 39 40 2 6 7 8 14 15 17 20 23 24 25 26 0
27 -28 29 30 31 -32 33 34 35 -36 -37 -38 39 40 2 3 4 6 8 15 17 20 25 26 0
27 -28 29 30 31 -32 33 34 35 -36 -37 -38 39 40 2 3 6 7 8 15 17 20 25 26 0
27 -28 29 30 31 -32 33 34 35 -36 -37 -38 39 40 2 4 6 8 15 17 20 23 25 26 0
27 -28 29 30 31 -32 33 34 35 -36 -37 -38 39 40 2 6 7 8 15 17 20 23 25 26 0
27 28 -29 30 31 -32 33 34 35 -36 -37 -38 39 40 1 3 6 8 15 17 20 24 25 26 0
27 28 -29 30 31 -32 33 34 35 -36 -37 -38 39 40 1 6 8 15 17 20 23 24 25 26 0
27 28 -29 30 31 -32 33 34 35 -36 -37 -38 39 40 3 8 14 15 17 20 24 25 26 0
27 28 -29 30 31 -32 33 34 35 -36 -37 -38 39 40 6 8 14 15 17 20 23 24 25 26 0
27 -28 -29 -30 31 -32 33 34 35 -36 -37 -38 39 40 6 8 15 17 20 25 26 0
27 28 29 30 31 32 -33 34 35 -36 -37 -38 39 40 1 3 5 7 8 9 15 17 24 25 26 0
27 -28 29 30 31 32 -33 34 35 -36 -37 -38 39 40 2 3 5 7 8 9 15 17 25 26 0
27 28 29 30 31 -32 -33 34 35 -36 -37 -38 39 40 1 2 3 7 8 15 17 24 25 26 0
27 -28 29 30 31 -32 -33 34 35 -36 -37 -38 39 40 2 3 7 8 15 17 25 26 0
27 28 29 30 31 32 -33 -34 35 -36 -37 -38 39 40 1 3 4 5 9 15 17 24 25 26 0
-27 -28 29 30 31 32 -33 -34 35 -36 -37 -38 39 40 2 4 5 9 15 17 23 25 26 0
-27 -28 29 -30 31 32 -33 -34 35 -36 -37 -38 39 40 4 5 9 15 17 25 26 0
27 28 29 30 31 -32 -33 -34 35 -36 -37 -38 39 40 1 2 3 4 15 17 24 25 26 0
-27 -28 29 30 31 -32 -33 -34 35 -36 -37 -38 39 40 2 4 15 17 23 25 26 0
27 28 -29 30 31 -32 -33 -34 35 -36 -37 -38 39 40 1 3 15 17 24 25 26 0
-27 -28 -29 -30 31 -32 -33 -34 35 -36 -37 -38 39 40 15 17 25 26 0
27 28 29 30 31 32 33 34 35 36 37 38 -39 40 1 2 3 4 5 6 7 8 9 10 11 12 13 16 17 18 21 0
27 28 29 30 31 32 33 34 35 36 37 38 -39 40 1 2 3 4 5 6 7 8 10 11 12 13 16 17 21 22 24 0
27 28 29 30 31 32 33 34 35 36 37 38 -39 40 1 2 3 4 5 6 7 8 10 12 13 16 17 18 21 22 0
27 28 29 30 31 32 33 34 35 36 37 38 -39 40 1 2 3 4 5 6 7 9 11 12 13 16 17 18 19 21 0
27 28 29 30 31 32 33 34 35 36 37 38 -39 40 1 2 3 4 5 6 7 11 12 13 16 17 19 21 22 24 0
27 28 29 30 31 32 33 34 35 36 37 38 -39 40 1 2 3 4 5 6 7 12 13 16 17 18 19 21 22 0
27 28 29 30 31 32 33 34 35 36 37 38 -39 40 1 2 3 4 5 6 8 9 10 11 12 13 17 18 20 21 26 0
27 28 29 30 31 32 33 34 35 36 37 38 -39 40 1 2 3 4 5 6 8 9 10 11 12 16 17 18 20 21 0
27 28 29 30 31 32 33 34 35 36 37 38 -39 40 1 2 3 4 5 6 8 10 11 12 13 17 20 21 22 24 26 0
27 28 29 30 31 32 33 34 35 36 37 38 -39 40 1 2 3 4 5 6 8 10 11 12 16 17 20 21 22 24 0
27 28 29 30 31 32 33 34 35 36 37 38 -39 40 1 2 3 4 5 6 8 10 12 13 17 18 20 21 22 26 0
27 28 29 30 31 32 33 34 35 36 37 38 -39 40 1 2 3 4 5 6 8 10 12 16 17 18 20 21 22 0
27 28 29 30 31 32 33 34 35 36 37 38 -39 40 1 2 3 4 5 6 9 11 12 13 17 18 19 20 21 26 0
27 28 29 30 31 32 33 34 35 36 37 38 -39 40 1 2 3 4 5 6 9 11 12 16 17 18 19 20 21 0
27 28 29 30 31 32 33 34 35 36 37 38 -39 40 1 2 3 4 5 6 11 12 13 17 19 20 21 22 24 26 0
27 28 29 30 31 32 33 34 35 36 37 38 -39 40 1 2 3 4 5 6 11 12 16 17 19 20 21 22 24 0
27 28 29 30 31 32 33 34 35 36 37 38 -39 40 1 2 3 4 5 6 12 13 17 18 19 20 21 22 26 0
27 28 29 30 31 32 33 34 35 36 37 38 -39 40 1 2 3 4 5 6 12 16 17 18 19 20 21 22 0
27 28 29 30 31 32 33 34 35 36 37 38 -39 40 1 2 3 4 5 7 9 11 12 13 14 16 17 18 19 21 0
27 28 29 30 31 32 33 34 35 36 37 38 -39 40 1 2 3 4 5 7 11 12 13 14 16 17 19 21 22 24 0
27 28 29 30 31 32 33 34 35 36 37 38 -39 40 1 2 3 4 5 7 12 13 14 16 17 18 19 21 22 0
27 28 29 30 31 32 33 34 35 36 37 38 -39 40 1 2 3 4 5 9 11 12 13 14 17 18 19 20 21 26 0
27 28 29 30 31 32 33 34 35 36 37 38 -39 40 1 2 3 4 5 9 11 12 14 16 17 18 19 20 21 0
27 28 29 30 31 32 33 34 35 36 37 38 -39 40 1 2 3 4 5 11 12 13 14 17 19 20 21 22 24 26 0
27 28 29 30 31 32 33 34 35 36 37 38 -39 40 1 2 3 4 5 11 12 14 16 17 19 20 21 22 24 0
27 28 29 30 31 32 33 34 35 36 37 38 -39 40 1 2 3 4 5 12 13 14 17 18 19 20 21 22 26 0
27 28 29 30 31 32 33 34 35 36 37 38 -39 40 1 2 3 4 5 12 14 16 17 18 19 20 21 22 0
27 28 29 30 31 32 33 34 35 36 37 38 -39 40 1 2 3 5 6 7 8 9 10 11 12 13 17 18 21 26 0
27 28 29 30 31 32 33 34 35 36 37 38 -39 40 1 2 3 5 6 7 8 9 10 11 12 16 17 18 20 21 26 0
27 28 29 30 31 32 33 34 35 36 37 38 -39 40 1 2 3 5 6 7 8 10 11 12 13 17 21 22 24 26 0
27 28 29 30 31 32 33 34 35 36 37 38 -39 40 1 2 3 5 6 7 8 10 11 12 16 17 20 21 22 24 26 0
27 28 29 30 31 32 33 34 35 36 37 38 -39 40 1 2 3 5 6 7 8 10 12 13 17 18 21 22 26 0
27 28 29 30 31 32 33 34 35 36 37 38 -39 40 1 2 3 5 6 7 8 10 12 16 17 18 20 21 22 26 0
27 28 29 30 31 32 33 34 35 36 37 38 -39 40 1 2 3 5 6 7 9 11 12 13 17 18 19 21 26 0
27 28 29 30 31 32 33 34 35 36 37 38 -39 40 1 2 3 5 6 7 9 11 12 16 17 18 19 20 21 26 0
27 28 29 30 31 32 33 34 35 36 37 38 -39 40 1 2 3 5 6 7 11 12 13 17 19 21 22 24 26 0
27 28 29 30 31 32 33 34 35 36 37 38 -39 40 1 2 3 5 6 7 11 12 16 17 19 20 21 22 24 26 0
27 28 29 30 31 32 33 34 35 36 37 38 -39 40 1 2 3 5 6 7 12 13 17 18 19 21 22 26 0
27 28 29 30 31 32 33 34 35 36 37 38 -39 40 1 2 3 5 6 7 12 16 17 18 19 20 21 22 26 0
27 28 29 30 31 32 33 34 35 36 37 38 -39 40 1 2 3 5 7 9 11 12 13 14 17 18 19 21 26 0
27 28 29 30 31 32 33 34 35 36 37 38 -39 40 1 2 3 5 7 9 11 12 14 16 17 18 19 20 21 26 0
27 28 29 30 31 32 33 34 35 36 37 38 -39 40 1 2 3 5 7 11 12 13 14 17 19 21 22 24 26 0
27 28 29 30 31 32 33 34 35 36 37 38 -39 40 1 2 3 5 7 11 12 14 16 17 19 20 21 22 24 26 0
27 28 29 30 31 32 33 34 35 36 37 38 -39 40 1 2 3 5 7 12 13 14 17 18 19 21 22 26 0
27 28 29 30 31 32 33 34 35 36 37 38 -39 40 1 2 3 5 7 12 14 16 17 18 19 20 21 22 26 0
27 28 29 30 31 32 33 34 35 36 37 38 -39 40 1 3 4 5 6 7 8 9 10 11 12 13 16 17 21 24 0
27 28 29 30 31 32 33 34 35 36 37 38 -39 40 1 3 4 5 6 7 8 9 10 12 13 16 17 18 21 22 24 0
27 28 29 30 31 32 33 34 35 36 37 38 -39 40 1 3 4 5 6 7 9 11 12 13 16 17 19 21 24 0
27 28 29 30 31 32 33 34 35 36 37 38 -39 40 1 3 4 5 6 7 9 12 13 16 17 18 19 21 22 24 0
27 28 29 30 31 32 33 34 35 36 37 38 -39 40 1 3 4 5 6 8 9 10 11 12 13 17 20 21 24 26 0
27 28 29 30 31 32 33 34 35 36 37 38 -39 40 1 3 4 5 6 8 9 10 11 12 16 17 20 21 24 0
27 28 29 30 31 32 33 34 35 36 37 38 -39 40 1 3 4 5 6 8 9 10 12 13 17 18 20 21 22 24 26 0
27 28 29 30 31 32 33 34 35 36 37 38 -39 40 1 3 4 5 6 8 9 10 12 16 17 18 20 21 22 24 0
27 28 29 30 31 32 33 34 35 36 37 38 -39 40 1 3 4 5 6 9 11 12 13 17 19 20 21 24 26 0
27 28 29 30 31 32 33 34 35 36 37 38 -39 40 1 3 4 5 6 9 11 12 16 17 19 20 21 24 0
27 28 29 30 31 32 33 34 35 36 37 38 -39 40 1 3 4 5 6 9 12 13 17 18 19 20 21 22 24 26 0
27 28 29 30 31 32 33 34 35 36 37 38 -39 40 1 3 4 5 6 9 12 16 17 18 19 20 21 22 24 0
27 28 29 30 31 32 33 34 35 36 37 38 -39 40 1 3 4 5 7 9 11 12 13 14 16 17 19 21 24 0
27 28 29 30 31 32 33 34 35 36 37 38 -39 40 1 3 4 5 7 9 12 13 14 16 17 18 19 21 22 24 0
27 28 29 30 31 32 33 34 35 36 37 38 -39 40 1 3 4 5 9 11 12 13 14 17 19 20 21 24 26 0
27 28 29 30 31 32 33 34 35 36 37 38 -39 40 1 3 4 5 9 11 12 14 16 17 19 20 21 24 0
27 28 29 30 31 32 33 34 35 36 37 38 -39 40 1 3 4 5 9 12 13 14 17 18 19 20 21 22 24 26 0
27 28 29 30 31 32 33 34 35 36 37 38 -39 40 1 3 4 5 9 12 14 16 17 18 19 20 21 22 24 0
27 28 29 30 31 32 33 34 35 36 37 38 -39 40 1 3 5 6 7 8 9 10 11 12 13 17 21 24 26 0
27 28 29 30 31 32 33 34 35 36 37 38 -39 40 1 3 5 6 7 8 9 10 11 12 16 17 20 21 24 26 0
27 28 29 30 31 32 33 34 35 36 37 38 -39 40 1 3 5 6 7 8 9 10 12 13 17 18 21 22 24 26 0
27 28 29 30 31 32 33 34 35 36 37 38 -39 40 1 3 5 6 7 8 9 10 12 16 17 18 20 21 22 24 26 0
27 28 29 30 31 32 33 34 35 36 37 38 -39 40 1 3 5 6 7 9 11 12 13 17 19 21 24 26 0
27 28 29 30 31 32 33 34 35 36 37 38 -39 40 1 3 5 6 7 9 11 12 16 17 19 20 21 24 26 0
27 28 29 30 31 32 33 34 35 36 37 38 -39 40 1 3 5 6 7 9 12 13 17 18 19 21 22 24 26 0
27 28 29 30 31 32 33 34 35 36 37 38 -39 40 1 3 5 6 7 9 12 16 17 18 19 20 21 22 24 26 0
27 28 29 30 31 32 33 34 35 36 37 38 -39 40 1 3 5 7 9 11 12 13 14 17 19 21 24 26 0
27 28 29 30 31 32 33 34 35 36 37 38 -39 40 1 3 5 7 9 11 12 14 16 17 19 20 21 24 26 0
27 28 29 30 31 32 33 34 35 36 37 38 -39 40 1 3 5 7 9 12 13 14 17 18 19 21 22 24 26 0
27 28 29 30 31 32 33 34 35 36 37 38 -39 40 1 3 5 7 9 12 14 16 17 18 19 20 21 22 24 26 0
27 28 29 30 31 32 33 34 35 36 37 38 -39 40 2 3 4 5 7 8 9 10 11 12 13 14 16 17 18 21 0
27 28 29 30 31 32 33 34 35 36 37 38 -39 40 2 3 4 5 7 8 9 11 12 13 14 16 17 18 19 21 0
27 28 29 30 31 32 33 34 35 36 37 38 -39 40 2 3 4 5 7 8 10 11 12 13 14 16 17 21 22 24 0
27 28 29 30 31 32 33 34 35 36 37 38 -39 40 2 3 4 5 7 8 10 12 13 14 16 17 18 21 22 0
27 28 29 30 31 32 33 34 35 36 37 38 -39 40 2 3 4 5 7 8 11 12 13 14 16 17 19 21 22 24 0
27 28 29 30 31 32 33 34 35 36 37 38 -39 40 2 3 4 5 7 8 12 13 14 16 17 18 19 21 22 0
27 28 29 30 31 32 33 34 35 36 37 38 -39 40 2 3 4 5 8 9 10 11 12 13 14 17 18 20 21 26 0
27 28 29 30 31 32 33 34 35 36 37 38 -39 40 2 3 4 5 8 9 10 11 12 14 16 17 18 20 21 0
27 28 29 30 31 32 33 34 35 36 37 38 -39 40 2 3 4 5 8 9 11 12 13 14 17 18 19 20 21 26 0
27 28 29 30 31 32 33 34 35 36 37 38 -39 40 2 3 4 5 8 9 11 12 14 16 17 18 19 20 21 0
27 28 29 30 31 32 33 34 35 36 37 38 -39 40 2 3 4 5 8 10 11 12 13 14 17 20 21 22 24 26 0
27 28 29 30 31 32 33 34 35 36 37 38 -39 40 2 3 4 5 8 10 11 12 14 16 17 20 21 22 24 0
27 28 29 30 31 32 33 34 35 36 37 38 -39 40 2 3 4 5 8 10 12 13 14 17 18 20 21 22 26 0
27 28 29 30 31 32 33 34 35 36 37 38 -39 40 2 3 4 5 8 10 12 14 16 17 18 20 21 22 0
27 28 29 30 31 32 33 34 35 36 37 38 -39 40 2 3 4 5 8 11 12 13 14 17 19 20 21 22 24 26 0
27 28 29 30 31 32 33 34 35 36 37 38 -39 40 2 3 4 5 8 11 12 14 16 17 19 20 21 22 24 0
27 28 29 30 31 32 33 34 35 36 37 38 -39 40 2 3 4 5 8 12 13 14 17 18 19 20 21 22 26 0
27 28 29 30 31 32 33 34 35 36 37 38 -39 40 2 3 4 5 8 12 14 16 17 18 19 20 21 22 0
27 28 29 30 31 32 33 34 35 36 37 38 -39 40 2 3 5 7 8 9 10 11 12 13 14 17 18 21 26 0
27 28 29 30 31 32 33 34 35 36 37 38 -39 40 2 3 5 7 8 9 10 11 12 14 16 17 18 20 21 26 0
27 28 29 30 31 32 33 34 35 36 37 38 -39 40 2 3 5 7 8 9 11 12 13 14 17 18 19 21 26 0
27 28 29 30 31 32 33 34 35 36 37 38 -39 40 2 3 5 7 8 9 11 12 14 16 17 18 19 20 21 26 0
27 28 29 30 31 32 33 34 35 36 37 38 -39 40 2 3 5 7 8 10 11 12 13 14 17 21 22 24 26 0
27 28 29 30 31 32 33 34 35 36 37 38 -39 40 2 3 5 7 8 10 11 12 14 16 17 20 21 22 24 26 0
27 28 29 30 31 32 33 34 35 36 37 38 -39 40 2 3 5 7 8 10 12 13 14 17 18 21 22 26 0
27 28 29 30 31 32 33 34 35 36 37 38 -39 40 2 3 5 7 8 10 12 14 16 17 18 20 21 22 26 0
27 28 29 30 31 32 33 34 35 36 37 38 -39 40 2 3 5 7 8 11 12 13 14 17 19 21 22 24 26 0
27 28 29 30 31 32 33 34 35 36 37 38 -39 40 2 3 5 7 8 11 12 14 16 17 19 20 21 22 24 26 0
27 28 29 30 31 32 33 34 35 36 37 38 -39 40 2 3 5 7 8 12 13 14 17 18 19 21 22 26 0
27 28 29 30 31 32 33 34 35 36 37 38 -39 40 2 3 5 7 8 12 14 16 17 18 19 20 21 22 26 0
27 28 29 30 31 32 33 34 35 36 37 38 -39 40 3 4 5 7 8 9 10 11 12 13 14 16 17 21 24 0
27 28 29 30 31 32 33 34 35 36 37 38 -39 40 3 4 5 7 8 9 10 12 13 14 16 17 18 21 22 24 0
27 28 29 30 31 32 33 34 35 36 37 38 -39 40 3 4 5 7 8 9 11 12 13 14 16 17 19 21 24 0
27 28 29 30 31 32 33 34 35 36 37 38 -39 40 3 4 5 7 8 9 12 13 14 16 17 18 19 21 22 24 0
27 28 29 30 31 32 33 34 35 36 37 38 -39 40 3 4 5 8 9 10 11 12 13 14 17 20 21 24 26 0
27 28 29 30 31 32 33 34 35 36 37 38 -39 40 3 4 5 8 9 10 11 12 14 16 17 20 21 24 0
27 28 29 30 31 32 33 34 35 36 37 38 -39 40 3 4 5 8 9 10 12 13 14 17 18 20 21 22 24 26 0
27 28 29 30 31 32 33 34 35 36 37 38 -39 40 3 4 5 8 9 10 12 14 16 17 18 20 21 22 24 0
27 28 29 30 31 32 33 34 35 36 37 38 -39 40 3 4 5 8 9 11 12 13 14 17 19 20 21 24 26 0
27 28 29 30 31 32 33 34 35 36 37 38 -39 40 3 4 5 8 9 11 12 14 16 17 19 20 21 24 0
27 28 29 30 31 32 33 34 35 36 37 38 -39 40 3 4 5 8 9 12 13 14 17 18 19 20 21 22 24 26 0
27 28 29 30 31 32 33 34 35 36 37 38 -39 40 3 4 5 8 9 12 14 16 17 18 19 20 21 22 24 0
27 28 29 30 31 32 33 34 35 36 37 38 -39 40 3 5 7 8 9 10 11 12 13 14 17 21 24 26 0
27 28 29 30 31 32 33 34 35 36 37 38 -39 40 3 5 7 8 9 10 11 12 14 16 17 20 21 24 26 0
27 28 29 30 31 32 33 34 35 36 37 38 -39 40 3 5 7 8 9 10 12 13 14 17 18 21 22 24 26 0
27 28 29 30 31 32 33 34 35 36 37 38 -39 40 3 5 7 8 9 10 12 14 16 17 18 20 21 22 24 26 0
27 28 29 30 31 32 33 34 35 36 37 38 -39 40 3 5 7 8 9 11 12 13 14 17 19 21 24 26 0
27 28 29 30 31 32 33 34 35 36 37 38 -39 40 3 5 7 8 9 11 12 14 16 17 19 20 21 24 26 0
27 28 29 30 31 32 33 34 35 36 37 38 -39 40 3 5 7 8 9 12 13 14 17 18 19 21 22 24 26 0
27 28 29 30 31 32 33 34 35 36 37 38 -39 40 3 5 7 8 9 12 14 16 17 18 19 20 21 22 24 26 0
27 -28 29 30 31 32 33 34 35 36 37 38 -39 40 2 3 4 5 6 7 8 9 10 11 12 13 16 17 21 0
27 -28 29 30 31 32 33 34 35 36 37 38 -39 40 2 3 4 5 6 7 8 9 11 12 13 16 17 19 21 0
27 -28 29 30 31 32 33 34 35 36 37 38 -39 40 2 3 4 5 6 7 8 10 11 12 13 16 17 21 22 0
27 -28 29 30 31 32 33 34 35 36 37 38 -39 40 2 3 4 5 6 7 8 11 12 13 16 17 19 21 22 0
27 -28 29 30 31 32 33 34 35 36 37 38 -39 40 2 3 4 5 6 8 9 10 11 12 13 17 20 21 26 0
27 -28 29 30 31 32 33 34 35 36 37 38 -39 40 2 3 4 5 6 8 9 10 11 12 16 17 20 21 0
27 -28 29 30 31 32 33 34 35 36 37 38 -39 40 2 3 4 5 6 8 9 11 12 13 17 19 20 21 26 0
27 -28 29 30 31 32 33 34 35 36 37 38 -39 40 2 3 4 5 6 8 9 11 12 16 17 19 20 21 0
27 -28 29 30 31 32 33 34 35 36 37 38 -39 40 2 3 4 5 6 8 10 11 12 13 17 20 21 22 26 0
27 -28 29 30 31 32 33 34 35 36 37 38 -39 40 2 3 4 5 6 8 10 11 12 16 17 20 21 22 0
27 -28 29 30 31 32 33 34 35 36 37 38 -39 40 2 3 4 5 6 8 11 12 13 17 19 20 21 22 26 0
27 -28 29 30 31 32 33 34 35 36 37 38 -39 40 2 3 4 5 6 8 11 12 16 17 19 20 21 22 0
27 -28 29 30 31 32 33 34 35 36 37 38 -39 40 2 3 5 6 7 8 9 10 11 12 13 17 21 26 0
27 -28 29 30 31 32 33 34 35 36 37 38 -39 40 2 3 5 6 7 8 9 10 11 12 16 17 20 21 26 0
27 -28 29 30 31 32 33 34 35 36 37 38 -39 40 2 3 5 6 7 8 9 11 12 13 17 19 21 26 0
27 -28 29 30 31 32 33 34 35 36 37 38 -39 40 2 3 5 6 7 8 9 11 12 16 17 19 20 21 26 0
27 -28 29 30 31 32 33 34 35 36 37 38 -39 40 2 3 5 6 7 8 10 11 12 13 17 21 22 26 0
27 -28 29 30 31 32 33 34 35 36 37 38 -39 40 2 3 5 6 7 8 10 11 12 16 17 20 21 22 26 0
27 -28 29 30 31 32 33 34 35 36 37 38 -39 40 2 3 5 6 7 8 11 12 13 17 19 21 22 26 0
27 -28 29 30 31 32 33 34 35 36 37 38 -39 40 2 3 5 6 7 8 11 12 16 17 19 20 21 22 26 0
27 28 -29 30 31 32 33 34 35 36 37 38 -39 40 1 3 5 6 8 10 11 12 13 17 20 21 22 24 26 0
27 28 -29 30 31 32 33 34 35 36 37 38 -39 40 1 3 5 6 8 10 11 12 16 17 20 21 22 24 26 0
27 28 -29 30 31 32 33 34 35 36 37 38 -39 40 1 3 5 6 8 10 12 13 17 18 20 21 22 24 26 0
27 28 -29 30 31 32 33 34 35 36 37 38 -39 40 1 3 5 6 8 10 12 16 17 18 20 21 22 24 26 0
27 28 -29 30 31 32 33 34 35 36 37 38 -39 40 1 3 5 6 11 12 13 17 19 20 21 22 24 26 0
27 28 -29 30 31 32 33 34 35 36 37 38 -39 40 1 3 5 6 11 12 16 17 19 20 21 22 24 26 0
27 28 -29 30 31 32 33 34 35 36 37 38 -39 40 1 3 5 6 12 13 17 18 19 20 21 22 24 26 0
27 28 -29 30 31 32 33 34 35 36 37 38 -39 40 1 3 5 6 12 16 17 18 19 20 21 22 24 26 0
27 28 -29 30 31 32 33 34 35 36 37 38 -39 40 1 3 5 11 12 13 14 17 19 20 21 22 24 26 0
27 28 -29 30 31 32 33 34 35 36 37 38 -39 40 1 3 5 11 12 14 16 17 19 20 21 22 24 26 0
27 28 -29 30 31 32 33 34 35 36 37 38 -39 40 1 3 5 12 13 14 17 18 19 20 21 22 24 26 0
27 28 -29 30 31 32 33 34 35 36 37 38 -39 40 1 3 5 12 14 16 17 18 19 20 21 22 24 26 0
27 28 -29 30 31 32 33 34 35 36 37 38 -39 40 3 5 8 10 11 12 13 14 17 20 21 22 24 26 0
27 28 -29 30 31 32 33 34 35 36 37 38 -39 40 3 5 8 10 11 12 14 16 17 20 21 22 24 26 0
27 28 -29 30 31 32 33 34 35 36 37 38 -39 40 3 5 8 10 12 13 14 17 18 20 21 22 24 26 0
27 28 -29 30 31 32 33 34 35 36 37 38 -39 40 3 5 8 10 12 14 16 17 18 20 21 22 24 26 0
27 28 -29 30 31 32 33 34 35 36 37 38 -39 40 3 5 8 11 12 13 14 17 19 20 21 22 24 26 0
27 28 -29 30 31 32 33 34 35 36 37 38 -39 40 3 5 8 11 12 14 16 17 19 20 21 22 24 26 0
27 28 -29 30 31 32 33 34 35 36 37 38 -39 40 3 5 8 12 13 14 17 18 19 20 21 22 24 26 0
27 28 -29 30 31 32 33 34 35 36 37 38 -39 40 3 5 8 12 14 16 17 18 19 20 21 22 24 26 0
27 28 29 -30 31 32 33 34 35 36 37 38 -39 40 1 4 5 6 7 8 9 10 11 12 13 16 17 18 21 0
27 28 29 -30 31 32 33 34 35 36 37 38 -39 40 1 4 5 6 7 8 9 10 12 13 16 17 18 21 22 0
27 28 29 -30 31 32 33 34 35 36 37 38 -39 40 1 4 5 6 7 9 11 12 13 16 17 18 19 21 0
27 28 29 -30 31 32 33 34 35 36 37 38 -39 40 1 4 5 6 7 9 12 13 16 17 18 19 21 22 0
27 28 29 -30 31 32 33 34 35 36 37 38 -39 40 1 4 5 6 8 9 10 11 12 13 17 18 20 21 26 0
27 28 29 -30 31 32 33 34 35 36 37 38 -39 40 1 4 5 6 8 9 10 11 12 16 17 18 20 21 0
27 28 29 -30 31 32 33 34 35 36 37 38 -39 40 1 4 5 6 8 9 10 12 13 17 18 20 21 22 26 0
27 28 29 -30 31 32 33 34 35 36 37 38 -39 40 1 4 5 6 8 9 10 12 16 17 18 20 21 22 0
27 28 29 -30 31 32 33 34 35 36 37 38 -39 40 1 4 5 6 9 11 12 13 17 18 19 20 21 26 0
27 28 29 -30 31 32 33 34 35 36 37 38 -39 40 1 4 5 6 9 11 12 16 17 18 19 20 21 0
27 28 29 -30 31 32 33 34 35 36 37 38 -39 40 1 4 5 6 9 12 13 17 18 19 20 21 22 26 0
27 28 29 -30 31 32 33 34 35 36 37 38 -39 40 1 4 5 6 9 12 16 17 18 19 20 21 22 0
27 28 29 -30 31 32 33 34 35 36 37 38 -39 40 1 5 6 7 8 9 10 11 12 13 17 18 21 26 0
27 28 29 -30 31 32 33 34 35 36 37 38 -39 40 1 5 6 7 8 9 10 11 12 16 17 18 20 21 26 0
27 28 29 -30 31 32 33 34 35 36 37 38 -39 40 1 5 6 7 8 9 10 12 13 17 18 21 22 26 0
27 28 29 -30 31 32 33 34 35 36 37 38 -39 40 1 5 6 7 8 9 10 12 16 17 18 20 21 22 26 0
27 28 29 -30 31 32 33 34 35 36 37 38 -39 40 1 5 6 7 9 11 12 13 17 18 19 21 26 0
27 28 29 -30 31 32 33 34 35 36 37 38 -39 40 1 5 6 7 9 11 12 16 17 18 19 20 21 26 0
27 28 29 -30 31 32 33 34 35 36 37 38 -39 40 1 5 6 7 9 12 13 17 18 19 21 22 26 0
27 28 29 -30 31 32 33 34 35 36 37 38 -39 40 1 5 6 7 9 12 16 17 18 19 20 21 22 26 0
27 28 29 -30 31 32 33 34 35 36 37 38 -39 40 4 5 6 7 8 9 10 11 12 13 14 16 17 18 21 0
27 28 29 -30 31 32 33 34 35 36 37 38 -39 40 4 5 6 7 8 9 10 12 13 14 16 17 18 21 22 0
27 28 29 -30 31 32 33 34 35 36 37 38 -39 40 4 5 6 7 8 9 11 12 13 14 16 17 18 19 21 0
27 28 29 -30 31 32 33 34 35 36 37 38 -39 40 4 5 6 7 8 9 12 13 14 16 17 18 19 21 22 0
27 28 29 -30 31 32 33 34 35 36 37 38 -39 40 4 5 6 8 9 10 11 12 13 14 17 18 20 21 26 0
27 28 29 -30 31 32 33 34 35 36 37 38 -39 40 4 5 6 8 9 10 11 12 14 16 17 18 20 21 0
27 28 29 -30 31 32 33 34 35 36 37 38 -39 40 4 5 6 8 9 10 12 13 14 17 18 20 21 22 26 0
27 28 29 -30 31 32 33 34 35 36 37 38 -39 40 4 5 6 8 9 10 12 14 16 17 18 20 21 22 0
27 28 29 -30 31 32 33 34 35 36 37 38 -39 40 4 5 6 8 9 11 12 13 14 17 18 19 20 21 26 0
27 28 29 -30 31 32 33 34 35 36 37 38 -39 40 4 5 6 8 9 11 12 14 16 17 18 19 20 21 0
27 28 29 -30 31 32 33 34 35 36 37 38 -39 40 4 5 6 8 9 12 13 14 17 18 19 20 21 22 26 0
27 28 29 -30 31 32 33 34 35 36 37 38 -39 40 4 5 6 8 9 12 14 16 17 18 19 20 21 22 0
27 28 29 -30 31 32 33 34 35 36 37 38 -39 40 5 6 7 8 9 10 11 12 13 14 17 18 21 26 0
27 28 29 -30 31 32 33 34 35 36 37 38 -39 40 5 6 7 8 9 10 11 12 14 16 17 18 20 21 26 0
27 28 29 -30 31 32 33 34 35 36 37 38 -39 40 5 6 7 8 9 10 12 13 14 17 18 21 22 26 0
27 28 29 -30 31 32 33 34 35 36 37 38 -39 40 5 6 7 8 9 10 12 14 16 17 18 20 21 22 26 0
27 28 29 -30 31 32 33 34 35 36 37 38 -39 40 5 6 7 8 9 11 12 13 14 17 18 19 21 26 0
27 28 29 -30 31 32 33 34 35 36 37 38 -39 40 5 6 7 8 9 11 12 14 16 17 18 19 20 21 26 0
27 28 29 -30 31 32 33 34 35 36 37 38 -39 40 5 6 7 8 9 12 13 14 17 18 19 21 22 26 0
27 28 29 -30 31 32 33 34 35 36 37 38 -39 40 5 6 7 8 9 12 14 16 17 18 19 20 21 22 26 0
-27 28 29 -30 31 32 33 34 35 36 37 38 -39 40 4 5 7 9 11 12 13 14 16 17 18 19 21 0
-27 28 29 -30 31 32 33 34 35 36 37 38 -39 40 4 5 7 9 12 13 14 16 17 18 19 21 22 0
-27 28 29 -30 31 32 33 34 35 36 37 38 -39 40 4 5 9 11 12 13 14 17 18 19 20 21 26 0
-27 28 29 -30 31 32 33 34 35 36 37 38 -39 40 4 5 9 11 12 14 16 17 18 19 20 21 0
-27 28 29 -30 31 32 33 34 35 36 37 38 -39 40 4 5 9 12 13 14 17 18 19 20 21 22 26 0
-27 28 29 -30 31 32 33 34 35 36 37 38 -39 40 4 5 9 12 14 16 17 18 19 20 21 22 0
-27 28 29 -30 31 32 33 34 35 36 37 38 -39 40 5 7 9 11 12 13 14 17 18 19 21 26 0
-27 28 29 -30 31 32 33 34 35 36 37 38 -39 40 5 7 9 11 12 14 16 17 18 19 20 21 26 0
-27 28 29 -30 31 32 33 34 35 36 37 38 -39 40 5 7 9 12 13 14 17 18 19 21 22 26 0
-27 28 29 -30 31 32 33 34 35 36 37 38 -39 40 5 7 9 12 14 16 17 18 19 20 21 22 26 0
27 -28 29 -30 31 32 33 34 35 36 37 38 -39 40 4 5 6 7 8 9 10 11 12 13 16 17 21 0
27 -28 29 -30 31 32 33 34 35 36 37 38 -39 40 4 5 6 7 8 9 11 12 13 16 17 19 21 0
27 -28 29 -30 31 32 33 34 35 36 37 38 -39 40 4 5 6 8 9 10 11 12 13 17 20 21 26 0
27 -28 29 -30 31 32 33 34 35 36 37 38 -39 40 4 5 6 8 9 10 11 12 16 17 20 21 0
27 -28 29 -30 31 32 33 34 35 36 37 38 -39 40 4 5 6 8 9 11 12 13 17 19 20 21 26 0
27 -28 29 -30 31 32 33 34 35 36 37 38 -39 40 4 5 6 8 9 11 12 16 17 19 20 21 0
27 -28 29 -30 31 32 33 34 35 36 37 38 -39 40 5 6 7 8 9 10 11 12 13 17 21 26 0
27 -28 29 -30 31 32 33 34 35 36 37 38 -39 40 5 6 7 8 9 10 11 12 16 17 20 21 26 0
27 -28 29 -30 31 32 33 34 35 36 37 38 -39 40 5 6 7 8 9 11 12 13 17 19 21 26 0
27 -28 29 -30 31 32 33 34 35 36 37 38 -39 40 5 6 7 8 9 11 12 16 17 19 20 21 26 0
27 28 -29 -30 31 32 33 34 35 36 37 38 -39 40 1 5 6 8 10 12 13 17 18 20 21 22 26 0
27 28 -29 -30 31 32 33 34 35 36 37 38 -39 40 1 5 6 8 10 12 16 17 18 20 21 22 26 0
27 28 -29 -30 31 32 33 34 35 36 37 38 -39 40 1 5 6 12 13 17 18 19 20 21 22 26 0
27 28 -29 -30 31 32 33 34 35 36 37 38 -39 40 1 5 6 12 16 17 18 19 20 21 22 26 0
27 28 -29 -30 31 32 33 34 35 36 37 38 -39 40 5 6 8 10 12 13 14 17 18 20 21 22 26 0
27 28 -29 -30 31 32 33 34 35 36 37 38 -39 40 5 6 8 10 12 14 16 17 18 20 21 22 26 0
27 28 -29 -30 31 32 33 34 35 36 37 38 -39 40 5 6 8 12 13 14 17 18 19 20 21 22 26 0
27 28 -29 -30 31 32 33 34 35 36 37 38 -39 40 5 6 8 12 14 16 17 18 19 20 21 22 26 0
-27 28 -29 -30 31 32 33 34 35 36 37 38 -39 40 5 12 13 14 17 18 19 20 21 22 26 0
-27 28 -29 -30 31 32 33 34 35 36 37 38 -39 40 5 12 14 16 17 18 19 20 21 22 26 0
27 -28 -29 -30 31 32 33 34 35 36 37 38 -39 40 5 6 8 10 11 12 13 17 20 21 22 26 0
27 -28 -29 -30 31 32 33 34 35 36 37 38 -39 40 5 6 8 10 11 12 16 17 20 21 22 26 0
27 -28 -29 -30 31 32 33 34 35 36 37 38 -39 40 5 6 8 11 12 13 17 19 20 21 22 26 0
27 -28 -29 -30 31 32 33 34 35 36 37 38 -39 40 5 6 8 11 12 16 17 19 20 21 22 26 0
27 28 29 30 -31 32 33 34 35 36 37 38 -39 40 1 2 3 6 7 8 9 10 11 12 13 16 17 18 21 0
27 28 29 30 -31 32 33 34 35 36 37 38 -39 40 1 2 3 6 7 8 9 10 11 12 16 17 18 20 21 0
27 28 29 30 -31 32 33 34 35 36 37 38 -39 40 1 2 3 6 7 8 10 11 12 13 16 17 21 22 24 0
27 28 29 30 -31 32 33 34 35 36 37 38 -39 40 1 2 3 6 7 8 10 11 12 16 17 20 21 22 24 0
27 28 29 30 -31 32 33 34 35 36 37 38 -39 40 1 2 3 6 7 8 10 12 13 16 17 18 21 22 0
27 28 29 30 -31 32 33 34 35 36 37 38 -39 40 1 2 3 6 7 8 10 12 16 17 18 20 21 22 0
27 28 29 30 -31 32 33 34 35 36 37 38 -39 40 1 2 3 6 7 9 11 12 13 16 17 18 19 21 0
27 28 29 30 -31 32 33 34 35 36 37 38 -39 40 1 2 3 6 7 9 11 12 16 17 18 19 20 21 0
27 28 29 30 -31 32 33 34 35 36 37 38 -39 40 1 2 3 6 7 11 12 13 16 17 19 21 22 24 0
27 28 29 30 -31 32 33 34 35 36 37 38 -39 40 1 2 3 6 7 11 12 16 17 19 20 21 22 24 0
27 28 29 30 -31 32 33 34 35 36 37 38 -39 40 1 2 3 6 7 12 13 16 17 18 19 21 22 0
27 28 29 30 -31 32 33 34 35 36 37 38 -39 40 1 2 3 6 7 12 16 17 18 19 20 21 22 0
27 28 29 30 -31 32 33 34 35 36 37 38 -39 40 1 2 3 7 9 11 12 13 14 16 17 18 19 21 0
27 28 29 30 -31 32 33 34 35 36 37 38 -39 40 1 2 3 7 9 11 12 14 16 17 18 19 20 21 0
27 28 29 30 -31 32 33 34 35 36 37 38 -39 40 1 2 3 7 11 12 13 14 16 17 19 21 22 24 0
27 28 29 30 -31 32 33 34 35 36 37 38 -39 40 1 2 3 7 11 12 14 16 17 19 20 21 22 24 0
27 28 29 30 -31 32 33 34 35 36 37 38 -39 40 1 2 3 7 12 13 14 16 17 18 19 21 22 0
27 28 29 30 -31 32 33 34 35 36 37 38 -39 40 1 2 3 7 12 14 16 17 18 19 20 21 22 0
27 28 29 30 -31 32 33 34 35 36 37 38 -39 40 1 3 6 7 8 9 10 11 12 13 16 17 21 24 0
27 28 29 30 -31 32 33 34 35 36 37 38 -39 40 1 3 6 7 8 9 10 11 12 16 17 20 21 24 0
27 28 29 30 -31 32 33 34 35 36 37 38 -39 40 1 3 6 7 8 9 10 12 13 16 17 18 21 22 24 0
27 28 29 30 -31 32 33 34 35 36 37 38 -39 40 1 3 6 7 8 9 10 12 16 17 18 20 21 22 24 0
27 28 29 30 -31 32 33 34 35 36 37 38 -39 40 1 3 6 7 9 11 12 13 16 17 19 21 24 0
27 28 29 30 -31 32 33 34 35 36 37 38 -39 40 1 3 6 7 9 11 12 16 17 19 20 21 24 0
27 28 29 30 -31 32 33 34 35 36 37 38 -39 40 1 3 6 7 9 12 13 16 17 18 19 21 22 24 0
27 28 29 30 -31 32 33 34 35 36 37 38 -39 40 1 3 6 7 9 12 16 17 18 19 20 21 22 24 0
27 28 29 30 -31 32 33 34 35 36 37 38 -39 40 1 3 7 9 11 12 13 14 16 17 19 21 24 0
27 28 29 30 -31 32 33 34 35 36 37 38 -39 40 1 3 7 9 11 12 14 16 17 19 20 21 24 0
27 28 29 30 -31 32 33 34 35 36 37 38 -39 40 1 3 7 9 12 13 14 16 17 18 19 21 22 24 0
27 28 29 30 -31 32 33 34 35 36 37 38 -39 40 1 3 7 9 12 14 16 17 18 19 20 21 22 24 0
27 28 29 30 -31 32 33 34 35 36 37 38 -39 40 2 3 7 8 9 10 11 12 13 14 16 17 18 21 0
27 28 29 30 -31 32 33 34 35 36 37 38 -39 40 2 3 7 8 9 10 11 12 14 16 17 18 20 21 0
27 28 29 30 -31 32 33 34 35 36 37 38 -39 40 2 3 7 8 9 11 12 13 14 16 17 18 19 21 0
27 28 29 30 -31 32 33 34 35 36 37 38 -39 40 2 3 7 8 9 11 12 14 16 17 18 19 20 21 0
27 28 29 30 -31 32 33 34 35 36 37 38 -39 40 2 3 7 8 10 11 12 13 14 16 17 21 22 24 0
27 28 29 30 -31 32 33 34 35 36 37 38 -39 40 2 3 7 8 10 11 12 14 16 17 20 21 22 24 0
27 28 29 30 -31 32 33 34 35 36 37 38 -39 40 2 3 7 8 10 12 13 14 16 17 18 21 22 0
27 28 29 30 -31 32 33 34 35 36 37 38 -39 40 2 3 7 8 10 12 14 16 17 18 20 21 22 0
27 28 29 30 -31 32 33 34 35 36 37 38 -39 40 2 3 7 8 11 12 13 14 16 17 19 21 22 24 0
27 28 29 30 -31 32 33 34 35 36 37 38 -39 40 2 3 7 8 11 12 14 16 17 19 20 21 22 24 0
27 28 29 30 -31 32 33 34 35 36 37 38 -39 40 2 3 7 8 12 13 14 16 17 18 19 21 22 0
27 28 29 30 -31 32 33 34 35 36 37 38 -39 40 2 3 7 8 12 14 16 17 18 19 20 21 22 0
27 28 29 30 -31 32 33 34 35 36 37 38 -39 40 3 7 8 9 10 11 12 13 14 16 17 21 24 0
27 28 29 30 -31 32 33 34 35 36 37 38 -39 40 3 7 8 9 10 11 12 14 16 17 20 21 24 0
27 28 29 30 -31 32 33 34 35 36 37 38 -39 40 3 7 8 9 10 12 13 14 16 17 18 21 22 24 0
27 28 29 30 -31 32 33 34 35 36 37 38 -39 40 3 7 8 9 10 12 14 16 17 18 20 21 22 24 0
27 28 29 30 -31 32 33 34 35 36 37 38 -39 40 3 7 8 9 11 12 13 14 16 17 19 21 24 0
27 28 29 30 -31 32 33 34 35 36 37 38 -39 40 3 7 8 9 11 12 14 16 17 19 20 21 24 0
27 28 29 30 -31 32 33 34 35 36 37 38 -39 40 3 7 8 9 12 13 14 16 17 18 19 21 22 24 0
27 28 29 30 -31 32 33 34 35 36 37 38 -39 40 3 7 8 9 12 14 16 17 18 19 20 21 22 24 0
27 -28 29 30 -31 32 33 34 35 36 37 38 -39 40 2 3 6 7 8 9 10 11 12 13 16 17 21 0
27 -28 29 30 -31 32 33 34 35 36 37 38 -39 40 2 3 6 7 8 9 10 11 12 16 17 20 21 0
27 -28 29 30 -31 32 33 34 35 36 37 38 -39 40 2 3 6 7 8 9 11 12 13 16 17 19 21 0
27 -28 29 30 -31 32 33 34 35 36 37 38 -39 40 2 3 6 7 8 9 11 12 16 17 19 20 21 0
27 -28 29 30 -31 32 33 34 35 36 37 38 -39 40 2 3 6 7 8 10 11 12 13 16 17 21 22 0
27 -28 29 30 -31 32 33 34 35 36 37 38 -39 40 2 3 6 7 8 10 11 12 16 17 20 21 22 0
27 -28 29 30 -31 32 33 34 35 36 37 38 -39 40 2 3 6 7 8 11 12 13 16 17 19 21 22 0
27 -28 29 30 -31 32 33 34 35 36 37 38 -39 40 2 3 6 7 8 11 12 16 17 19 20 21 22 0
27 28 -29 30 -31 32 33 34 35 36 37 38 -39 40 1 3 6 8 10 11 12 16 17 20 21 22 24 0
27 28 -29 30 -31 32 33 34 35 36 37 38 -39 40 1 3 6 8 10 12 16 17 18 20 21 22 24 0
27 28 -29 30 -31 32 33 34 35 36 37 38 -39 40 1 3 6 11 12 16 17 19 20 21 22 24 0
27 28 -29 30 -31 32 33 34 35 36 37 38 -39 40 1 3 6 12 16 17 18 19 20 21 22 24 0
27 28 -29 30 -31 32 33 34 35 36 37 38 -39 40 1 3 11 12 14 16 17 19 20 21 22 24 0
27 28 -29 30 -31 32 33 34 35 36 37 38 -39 40 1 3 12 14 16 17 18 19 20 21 22 24 0
27 28 -29 30 -31 32 33 34 35 36 37 38 -39 40 3 8 10 11 12 14 16 17 20 21 22 24 0
27 28 -29 30 -31 32 33 34 35 36 37 38 -39 40 3 8 10 12 14 16 17 18 20 21 22 24 0
27 28 -29 30 -31 32 33 34 35 36 37 38 -39 40 3 8 11 12 14 16 17 19 20 21 22 24 0
27 28 -29 30 -31 32 33 34 35 36 37 38 -39 40 3 8 12 14 16 17 18 19 20 21 22 24 0
27 28 29 -30 -31 32 33 34 35 36 37 38 -39 40 1 6 7 8 9 10 11 12 13 16 17 18 21 0
27 28 29 -30 -31 32 33 34 35 36 37 38 -39 40 1 6 7 8 9 10 11 12 16 17 18 20 21 0
27 28 29 -30 -31 32 33 34 35 36 37 38 -39 40 1 6 7 8 9 10 12 13 16 17 18 21 22 0
27 28 29 -30 -31 32 33 34 35 36 37 38 -39 40 1 6 7 8 9 10 12 16 17 18 20 21 22 0
27 28 29 -30 -31 32 33 34 35 36 37 38 -39 40 1 6 7 9 11 12 13 16 17 18 19 21 0
27 28 29 -30 -31 32 33 34 35 36 37 38 -39 40 1 6 7 9 11 12 16 17 18 19 20 21 0
27 28 29 -30 -31 32 33 34 35 36 37 38 -39 40 1 6 7 9 12 13 16 17 18 19 21 22 0
27 28 29 -30 -31 32 33 34 35 36 37 38 -39 40 1 6 7 9 12 16 17 18 19 20 21 22 0
27 28 29 -30 -31 32 33 34 35 36 37 38 -39 40 6 7 8 9 10 11 12 13 14 16 17 18 21 0
27 28 29 -30 -31 32 33 34 35 36 37 38 -39 40 6 7 8 9 10 11 12 14 16 17 18 20 21 0
27 28 29 -30 -31 32 33 34 35 36 37 38 -39 40 6 7 8 9 10 12 13 14 16 17 18 21 22 0
27 28 29 -30 -31 32 33 34 35 36 37 38 -39 40 6 7 8 9 10 12 14 16 17 18 20 21 22 0
27 28 29 -30 -31 32 33 34 35 36 37 38 -39 40 6 7 8 9 11 12 13 14 16 17 18 19 21 0
27 28 29 -30 -31 32 33 34 35 36 37 38 -39 40 6 7 8 9 11 12 14 16 17 18 19 20 21 0
27 28 29 -30 -31 32 33 34 35 36 37 38 -39 40 6 7 8 9 12 13 14 16 17 18 19 21 22 0
27 28 29 -30 -31 32 33 34 35 36 37 38 -39 40 6 7 8 9 12 14 16 17 18 19 20 21 22 0
-27 28 29 -30 -31 32 33 34 35 36 37 38 -39 40 7 9 11 12 13 14 16 17 18 19 21 0
-27 28 29 -30 -31 32 33 34 35 36 37 38 -39 40 7 9 11 12 14 16 17 18 19 20 21 0
-27 28 29 -30 -31 32 33 34 35 36 37 38 -39 40 7 9 12 13 14 16 17 18 19 21 22 0
-27 28 29 -30 -31 32 33 34 35 36 37 38 -39 40 7 9 12 14 16 17 18 19 20 21 22 0
27 -28 29 -30 -31 32 33 34 35 36 37 38 -39 40 6 7 8 9 10 11 12 13 16 17 21 0
27 -28 29 -30 -31 32 33 34 35 36 37 38 -39 40 6 7 8 9 10 11 12 16 17 20 21 0
27 -28 29 -30 -31 32 33 34 35 36 37 38 -39 40 6 7 8 9 11 12 13 16 17 19 21 0
27 -28 29 -30 -31 32 33 34 35 36 37 38 -39 40 6 7 8 9 11 12 16 17 19 20 21 0
27 28 -29 -30 -31 32 33 34 35 36 37 38 -39 40 1 6 8 10 12 16 17 18 20 21 22 0
27 28 -29 -30 -31 32 33 34 35 36 37 38 -39 40 1 6 12 16 17 18 19 20 21 22 0
27 28 -29 -30 -31 32 33 34 35 36 37 38 -39 40 6 8 10 12 14 16 17 18 20 21 22 0
27 28 -29 -30 -31 32 33 34 35 36 37 38 -39 40 6 8 12 14 16 17 18 19 20 21 22 0
-27 28 -29 -30 -31 32 33 34 35 36 37 38 -39 40 12 14 16 17 18 19 20 21 22 0
27 -28 -29 -30 -31 32 33 34 35 36 37 38 -39 40 6 8 10 11 12 16 17 20 21 22 0
27 -28 -29 -30 -31 32 33 34 35 36 37 38 -39 40 6 8 11 12 16 17 19 20 21 22 0
27 28 29 30 31 32 -33 34 35 36 37 38 -39 40 1 2 3 4 5 7 8 9 10 11 12 16 17 18 21 0
27 28 29 30 31 32 -33 34 35 36 37 38 -39 40 1 2 3 4 5 7 8 10 11 12 16 17 21 22 24 0
27 28 29 30 31 32 -33 34 35 36 37 38 -39 40 1 2 3 4 5 7 8 10 12 16 17 18 21 22 0
27 28 29 30 31 32 -33 34 35 36 37 38 -39 40 1 2 3 4 5 7 9 11 12 16 17 18 19 21 0
27 28 29 30 31 32 -33 34 35 36 37 38 -39 40 1 2 3 4 5 7 11 12 16 17 19 21 22 24 0
27 28 29 30 31 32 -33 34 35 36 37 38 -39 40 1 2 3 4 5 7 12 16 17 18 19 21 22 0
27 28 29 30 31 32 -33 34 35 36 37 38 -39 40 1 2 3 5 7 8 9 10 11 12 16 17 18 21 26 0
27 28 29 30 31 32 -33 34 35 36 37 38 -39 40 1 2 3 5 7 8 10 11 12 16 17 21 22 24 26 0
27 28 29 30 31 32 -33 34 35 36 37 38 -39 40 1 2 3 5 7 8 10 12 16 17 18 21 22 26 0
27 28 29 30 31 32 -33 34 35 36 37 38 -39 40 1 2 3 5 7 9 11 12 16 17 18 19 21 26 0
27 28 29 30 31 32 -33 34 35 36 37 38 -39 40 1 2 3 5 7 11 12 16 17 19 21 22 24 26 0
27 28 29 30 31 32 -33 34 35 36 37 38 -39 40 1 2 3 5 7 12 16 17 18 19 21 22 26 0
27 28 29 30 31 32 -33 34 35 36 37 38 -39 40 1 3 4 5 7 8 9 10 11 12 16 17 21 24 0
27 28 29 30 31 32 -33 34 35 36 37 38 -39 40 1 3 4 5 7 8 9 10 12 16 17 18 21 22 24 0
27 28 29 30 31 32 -33 34 35 36 37 38 -39 40 1 3 4 5 7 9 11 12 16 17 19 21 24 0
27 28 29 30 31 32 -33 34 35 36 37 38 -39 40 1 3 4 5 7 9 12 16 17 18 19 21 22 24 0
27 28 29 30 31 32 -33 34 35 36 37 38 -39 40 1 3 5 7 8 9 10 11 12 16 17 21 24 26 0
27 28 29 30 31 32 -33 34 35 36 37 38 -39 40 1 3 5 7 8 9 10 12 16 17 18 21 22 24 26 0
27 28 29 30 31 32 -33 34 35 36 37 38 -39 40 1 3 5 7 9 11 12 16 17 19 21 24 26 0
27 28 29 30 31 32 -33 34 35 36 37 38 -39 40 1 3 5 7 9 12 16 17 18 19 21 22 24 26 0
27 -28 29 30 31 32 -33 34 35 36 37 38 -39 40 2 3 4 5 7 8 9 10 11 12 16 17 21 0
27 -28 29 30 31 32 -33 34 35 36 37 38 -39 40 2 3 4 5 7 8 9 11 12 16 17 19 21 0
27 -28 29 30 31 32 -33 34 35 36 37 38 -39 40 2 3 4 5 7 8 10 11 12 16 17 21 22 0
27 -28 29 30 31 32 -33 34 35 36 37 38 -39 40 2 3 4 5 7 8 11 12 16 17 19 21 22 0
27 -28 29 30 31 32 -33 34 35 36 37 38 -39 40 2 3 5 7 8 9 10 11 12 16 17 21 26 0
27 -28 29 30 31 32 -33 34 35 36 37 38 -39 40 2 3 5 7 8 9 11 12 16 17 19 21 26 0
27 -28 29 30 31 32 -33 34 35 36 37 38 -39 40 2 3 5 7 8 10 11 12 16 17 21 22 26 0
27 -28 29 30 31 32 -33 34 35 36 37 38 -39 40 2 3 5 7 8 11 12 16 17 19 21 22 26 0
-27 -28 29 -30 31 32 -33 34 35 36 37 38 -39 40 4 5 7 9 11 12 16 17 19 21 0
-27 -28 29 -30 31 32 -33 34 35 36 37 38 -39 40 5 7 9 11 12 16 17 19 21 26 0
27 28 29 30 -31 32 -33 34 35 36 37 38 -39 40 1 2 3 7 8 9 10 11 12 16 17 18 21 0
27 28 29 30 -31 32 -33 34 35 36 37 38 -39 40 1 2 3 7 8 10 11 12 16 17 21 22 24 0
27 28 29 30 -31 32 -33 34 35 36 37 38 -39 40 1 2 3 7 8 10 12 16 17 18 21 22 0
27 28 29 30 -31 32 -33 34 35 36 37 38 -39 40 1 2 3 7 9 11 12 16 17 18 19 21 0
27 28 29 30 -31 32 -33 34 35 36 37 38 -39 40 1 2 3 7 11 12 16 17 19 21 22 24 0
27 28 29 30 -31 32 -33 34 35 36 37 38 -39 40 1 2 3 7 12 16 17 18 19 21 22 0
27 28 29 30 -31 32 -33 34 35 36 37 38 -39 40 1 3 7 8 9 10 11 12 16 17 21 24 0
27 28 29 30 -31 32 -33 34 35 36 37 38 -39 40 1 3 7 8 9 10 12 16 17 18 21 22 24 0
27 28 29 30 -31 32 -33 34 35 36 37 38 -39 40 1 3 7 9 11 12 16 17 19 21 24 0
27 28 29 30 -31 32 -33 34 35 36 37 38 -39 40 1 3 7 9 12 16 17 18 19 21 22 24 0
27 -28 29 30 -31 32 -33 34 35 36 37 38 -39 40 2 3 7 8 9 10 11 12 16 17 21 0
27 -28 29 30 -31 32 -33 34 35 36 37 38 -39 40 2 3 7 8 9 11 12 16 17 19 21 0
27 -28 29 30 -31 32 -33 34 35 36 37 38 -39 40 2 3 7 8 10 11 12 16 17 21 22 0
27 -28 29 30 -31 32 -33 34 35 36 37 38 -39 40 2 3 7 8 11 12 16 17 19 21 22 0
-27 -28 29 -30 -31 32 -33 34 35 36 37 38 -39 40 7 9 11 12 16 17 19 21 0
27 28 29 30 31 32 33 -34 35 36 37 38 -39 40 1 2 3 4 5 6 9 10 11 12 13 16 17 18 21 0
27 28 29 30 31 32 33 -34 35 36 37 38 -39 40 1 2 3 4 5 6 9 10 11 12 13 17 18 21 26 0
27 28 29 30 31 32 33 -34 35 36 37 38 -39 40 1 2 3 4 5 6 10 11 12 13 16 17 21 22 24 0
27 28 29 30 31 32 33 -34 35 36 37 38 -39 40 1 2 3 4 5 6 10 11 12 13 17 21 22 24 26 0
27 28 29 30 31 32 33 -34 35 36 37 38 -39 40 1 2 3 4 5 6 10 12 13 16 17 18 21 22 0
27 28 29 30 31 32 33 -34 35 36 37 38 -39 40 1 2 3 4 5 6 10 12 13 17 18 21 22 26 0
27 28 29 30 31 32 33 -34 35 36 37 38 -39 40 1 2 3 4 5 9 10 11 12 13 14 16 17 18 21 0
27 28 29 30 31 32 33 -34 35 36 37 38 -39 40 1 2 3 4 5 9 10 11 12 13 14 17 18 21 26 0
27 28 29 30 31 32 33 -34 35 36 37 38 -39 40 1 2 3 4 5 10 11 12 13 14 16 17 21 22 24 0
27 28 29 30 31 32 33 -34 35 36 37 38 -39 40 1 2 3 4 5 10 11 12 13 14 17 21 22 24 26 0
27 28 29 30 31 32 33 -34 35 36 37 38 -39 40 1 2 3 4 5 10 12 13 14 16 17 18 21 22 0
27 28 29 30 31 32 33 -34 35 36 37 38 -39 40 1 2 3 4 5 10 12 13 14 17 18 21 22 26 0
27 28 29 30 31 32 33 -34 35 36 37 38 -39 40 1 3 4 5 6 9 10 11 12 13 16 17 21 24 0
27 28 29 30 31 32 33 -34 35 36 37 38 -39 40 1 3 4 5 6 9 10 11 12 13 17 21 24 26 0
27 28 29 30 31 32 33 -34 35 36 37 38 -39 40 1 3 4 5 6 9 10 12 13 16 17 18 21 22 24 0
27 28 29 30 31 32 33 -34 35 36 37 38 -39 40 1 3 4 5 6 9 10 12 13 17 18 21 22 24 26 0
27 28 29 30 31 32 33 -34 35 36 37 38 -39 40 1 3 4 5 9 10 11 12 13 14 16 17 21 24 0
27 28 29 30 31 32 33 -34 35 36 37 38 -39 40 1 3 4 5 9 10 11 12 13 14 17 21 24 26 0
27 28 29 30 31 32 33 -34 35 36 37 38 -39 40 1 3 4 5 9 10 12 13 14 16 17 18 21 22 24 0
27 28 29 30 31 32 33 -34 35 36 37 38 -39 40 1 3 4 5 9 10 12 13 14 17 18 21 22 24 26 0
27 28 -29 30 31 32 33 -34 35 36 37 38 -39 40 1 3 5 6 10 11 12 13 17 21 22 24 26 0
27 28 -29 30 31 32 33 -34 35 36 37 38 -39 40 1 3 5 6 10 12 13 17 18 21 22 24 26 0
27 28 -29 30 31 32 33 -34 35 36 37 38 -39 40 1 3 5 10 11 12 13 14 17 21 22 24 26 0
27 28 -29 30 31 32 33 -34 35 36 37 38 -39 40 1 3 5 10 12 13 14 17 18 21 22 24 26 0
27 28 29 -30 31 32 33 -34 35 36 37 38 -39 40 1 4 5 6 9 10 11 12 13 16 17 18 21 0
27 28 29 -30 31 32 33 -34 35 36 37 38 -39 40 1 4 5 6 9 10 11 12 13 17 18 21 26 0
27 28 29 -30 31 32 33 -34 35 36 37 38 -39 40 1 4 5 6 9 10 12 13 16 17 18 21 22 0
27 28 29 -30 31 32 33 -34 35 36 37 38 -39 40 1 4 5 6 9 10 12 13 17 18 21 22 26 0
-27 28 29 -30 31 32 33 -34 35 36 37 38 -39 40 4 5 9 10 11 12 13 14 16 17 18 21 0
-27 28 29 -30 31 32 33 -34 35 36 37 38 -39 40 4 5 9 10 11 12 13 14 17 18 21 26 0
-27 28 29 -30 31 32 33 -34 35 36 37 38 -39 40 4 5 9 10 12 13 14 16 17 18 21 22 0
-27 28 29 -30 31 32 33 -34 35 36 37 38 -39 40 4 5 9 10 12 13 14 17 18 21 22 26 0
27 28 -29 -30 31 32 33 -34 35 36 37 38 -39 40 1 5 6 10 12 13 17 18 21 22 26 0
-27 28 -29 -30 31 32 33 -34 35 36 37 38 -39 40 5 10 12 13 14 17 18 21 22 26 0
27 28 -29 30 -31 32 33 -34 35 36 37 38 -39 40 1 3 6 10 11 12 13 16 17 21 22 24 0
27 28 -29 30 -31 32 33 -34 35 36 37 38 -39 40 1 3 6 10 12 13 16 17 18 21 22 24 0
27 28 -29 30 -31 32 33 -34 35 36 37 38 -39 40 1 3 10 11 12 13 14 16 17 21 22 24 0
27 28 -29 30 -31 32 33 -34 35 36 37 38 -39 40 1 3 10 12 13 14 16 17 18 21 22 24 0
27 28 -29 -30 -31 32 33 -34 35 36 37 38 -39 40 1 6 10 12 13 16 17 18 21 22 0
-27 28 -29 -30 -31 32 33 -34 35 36 37 38 -39 40 10 12 13 14 16 17 18 21 22 0
27 28 29 30 31 32 -33 -34 35 36 37 38 -39 40 1 2 3 4 5 9 10 11 12 16 17 18 21 0
27 28 29 30 31 32 -33 -34 35 36 37 38 -39 40 1 2 3 4 5 10 11 12 16 17 21 22 24 0
27 28 29 30 31 32 -33 -34 35 36 37 38 -39 40 1 2 3 4 5 10 12 16 17 18 21 22 0
27 28 29 30 31 32 -33 -34 35 36 37 38 -39 40 1 3 4 5 9 10 11 12 16 17 21 24 0
27 28 29 30 31 32 -33 -34 35 36 37 38 -39 40 1 3 4 5 9 10 12 16 17 18 21 22 24 0
27 28 -29 30 31 32 -33 -34 35 36 37 38 -39 40 1 3 5 10 11 12 16 17 21 22 24 26 0
27 28 -29 30 31 32 -33 -34 35 36 37 38 -39 40 1 3 5 10 12 16 17 18 21 22 24 26 0
-27 -28 29 -30 31 32 -33 -34 35 36 37 38 -39 40 4 5 9 10 11 12 16 17 21 0
-27 -28 -29 -30 31 32 -33 -34 35 36 37 38 -39 40 5 10 11 12 16 17 21 22 26 0
27 28 -29 30 -31 32 -33 -34 35 36 37 38 -39 40 1 3 10 11 12 16 17 21 22 24 0
27 28 -29 30 -31 32 -33 -34 35 36 37 38 -39 40 1 3 10 12 16 17 18 21 22 24 0
-27 -28 -29 -30 -31 32 -33 -34 35 36 37 38 -39 40 10 11 12 16 17 21 22 0
27 28 29 30 31 32 33 34 35 -36 37 38 -39 40 1 2 3 4 5 6 7 8 9 11 12 13 16 17 18 0
27 28 29 30 31 32 33 34 35 -36 37 38 -39 40 1 2 3 4 5 6 7 8 11 12 13 16 17 22 24 0
27 28 29 30 31 32 33 34 35 -36 37 38 -39 40 1 2 3 4 5 6 7 8 12 13 16 17 18 22 0
27 28 29 30 31 32 33 34 35 -36 37 38 -39 40 1 2 3 4 5 6 8 9 11 12 13 17 18 20 26 0
27 28 29 30 31 32 33 34 35 -36 37 38 -39 40 1 2 3 4 5 6 8 9 11 12 16 17 18 20 0
27 28 29 30 31 32 33 34 35 -36 37 38 -39 40 1 2 3 4 5 6 8 11 12 13 17 20 22 24 26 0
27 28 29 30 31 32 33 34 35 -36 37 38 -39 40 1 2 3 4 5 6 8 11 12 16 17 20 22 24 0
27 28 29 30 31 32 33 34 35 -36 37 38 -39 40 1 2 3 4 5 6 8 12 13 17 18 20 22 26 0
27 28 29 30 31 32 33 34 35 -36 37 38 -39 40 1 2 3 4 5 6 8 12 16 17 18 20 22 0
27 28 29 30 31 32 33 34 35 -36 37 38 -39 40 1 2 3 5 6 7 8 9 11 12 13 17 18 26 0
27 28 29 30 31 32 33 34 35 -36 37 38 -39 40 1 2 3 5 6 7 8 9 11 12 16 17 18 20 26 0
27 28 29 30 31 32 33 34 35 -36 37 38 -39 40 1 2 3 5 6 7 8 11 12 13 17 22 24 26 0
27 28 29 30 31 32 33 34 35 -36 37 38 -39 40 1 2 3 5 6 7 8 11 12 16 17 20 22 24 26 0
27 28 29 30 31 32 33 34 35 -36 37 38 -39 40 1 2 3 5 6 7 8 12 13 17 18 22 26 0
27 28 29 30 31 32 33 34 35 -36 37 38 -39 40 1 2 3 5 6 7 8 12 16 17 18 20 22 26 0
27 28 29 30 31 32 33 34 35 -36 37 38 -39 40 1 3 4 5 6 7 8 9 11 12 13 16 17 24 0
27 28 29 30 31 32 33 34 35 -36 37 38 -39 40 1 3 4 5 6 7 8 9 12 13 16 17 18 22 24 0
27 28 29 30 31 32 33 34 35 -36 37 38 -39 40 1 3 4 5 6 8 9 11 12 13 17 20 24 26 0
27 28 29 30 31 32 33 34 35 -36 37 38 -39 40 1 3 4 5 6 8 9 11 12 16 17 20 24 0
27 28 29 30 31 32 33 34 35 -36 37 38 -39 40 1 3 4 5 6 8 9 12 13 17 18 20 22 24 26 0
27 28 29 30 31 32 33 34 35 -36 37 38 -39 40 1 3 4 5 6 8 9 12 16 17 18 20 22 24 0
27 28 29 30 31 32 33 34 35 -36 37 38 -39 40 1 3 5 6 7 8 9 11 12 13 17 24 26 0
27 28 29 30 31 32 33 34 35 -36 37 38 -39 40 1 3 5 6 7 8 9 11 12 16 17 20 24 26 0
27 28 29 30 31 32 33 34 35 -36 37 38 -39 40 1 3 5 6 7 8 9 12 13 17 18 22 24 26 0
27 28 29 30 31 32 33 34 35 -36 37 38 -39 40 1 3 5 6 7 8 9 12 16 17 18 20 22 24 26 0
27 28 29 30 31 32 33 34 35 -36 37 38 -39 40 2 3 4 5 7 8 9 11 12 13 14 16 17 18 0
27 28 29 30 31 32 33 34 35 -36 37 38 -39 40 2 3 4 5 7 8 11 12 13 14 16 17 22 24 0
27 28 29 30 31 32 33 34 35 -36 37 38 -39 40 2 3 4 5 7 8 12 13 14 16 17 18 22 0
27 28 29 30 31 32 33 34 35 -36 37 38 -39 40 2 3 4 5 8 9 11 12 13 14 17 18 20 26 0
27 28 29 30 31 32 33 34 35 -36 37 38 -39 40 2 3 4 5 8 9 11 12 14 16 17 18 20 0
27 28 29 30 31 32 33 34 35 -36 37 38 -39 40 2 3 4 5 8 11 12 13 14 17 20 22 24 26 0
27 28 29 30 31 32 33 34 35 -36 37 38 -39 40 2 3 4 5 8 11 12 14 16 17 20 22 24 0
27 28 29 30 31 32 33 34 35 -36 37 38 -39 40 2 3 4 5 8 12 13 14 17 18 20 22 26 0
27 28 29 30 31 32 33 34 35 -36 37 38 -39 40 2 3 4 5 8 12 14 16 17 18 20 22 0
27 28 29 30 31 32 33 34 35 -36 37 38 -39 40 2 3 5 7 8 9 11 12 13 14 17 18 26 0
27 28 29 30 31 32 33 34 35 -36 37 38 -39 40 2 3 5 7 8 9 11 12 14 16 17 18 20 26 0
27 28 29 30 31 32 33 34 35 -36 37 38 -39 40 2 3 5 7 8 11 12 13 14 17 22 24 26 0
27 28 29 30 31 32 33 34 35 -36 37 38 -39 40 2 3 5 7 8 11 12 14 16 17 20 22 24 26 0
27 28 29 30 31 32 33 34 35 -36 37 38 -39 40 2 3 5 7 8 12 13 14 17 18 22 26 0
27 28 29 30 31 32 33 34 35 -36 37 38 -39 40 2 3 5 7 8 12 14 16 17 18 20 22 26 0
27 28 29 30 31 32 33 34 35 -36 37 38 -39 40 3 4 5 7 8 9 11 12 13 14 16 17 24 0
27 28 29 30 31 32 33 34 35 -36 37 38 -39 40 3 4 5 7 8 9 12 13 14 16 17 18 22 24 0
27 28 29 30 31 32 33 34 35 -36 37 38 -39 40 3 4 5 8 9 11 12 13 14 17 20 24 26 0
27 28 29 30 31 32 33 34 35 -36 37 38 -39 40 3 4 5 8 9 11 12 14 16 17 20 24 0
27 28 29 30 31 32 33 34 35 -36 37 38 -39 40 3 4 5 8 9 12 13 14 17 18 20 22 24 26 0
27 28 29 30 31 32 33 34 35 -36 37 38 -39 40 3 4 5 8 9 12 14 16 17 18 20 22 24 0
27 28 29 30 31 32 33 34 35 -36 37 38 -39 40 3 5 7 8 9 11 12 13 14 17 24 26 0
27 28 29 30 31 32 33 34 35 -36 37 38 -39 40 3 5 7 8 9 11 12 14 16 17 20 24 26 0
27 28 29 30 31 32 33 34 35 -36 37 38 -39 40 3 5 7 8 9 12 13 14 17 18 22 24 26 0
27 28 29 30 31 32 33 34 35 -36 37 38 -39 40 3 5 7 8 9 12 14 16 17 18 20 22 24 26 0
27 -28 29 30 31 32 33 34 35 -36 37 38 -39 40 2 3 4 5 6 7 8 9 11 12 13 16 17 0
27 -28 29 30 31 32 33 34 35 -36 37 38 -39 40 2 3 4 5 6 7 8 11 12 13 16 17 22 0
27 -28 29 30 31 32 33 34 35 -36 37 38 -39 40 2 3 4 5 6 8 9 11 12 13 17 20 26 0
27 -28 29 30 31 32 33 34 35 -36 37 38 -39 40 2 3 4 5 6 8 9 11 12 16 17 20 0
27 -28 29 30 31 32 33 34 35 -36 37 38 -39 40 2 3 4 5 6 8 11 12 13 17 20 22 26 0
27 -28 29 30 31 32 33 34 35 -36 37 38 -39 40 2 3 4 5 6 8 11 12 16 17 20 22 0
27 -28 29 30 31 32 33 34 35 -36 37 38 -39 40 2 3 5 6 7 8 9 11 12 13 17 26 0
27 -28 29 30 31 32 33 34 35 -36 37 38 -39 40 2 3 5 6 7 8 9 11 12 16 17 20 26 0
27 -28 29 30 31 32 33 34 35 -36 37 38 -39 40 2 3 5 6 7 8 11 12 13 17 22 26 0
27 -28 29 30 31 32 33 34 35 -36 37 38 -39 40 2 3 5 6 7 8 11 12 16 17 20 22 26 0
27 28 -29 30 31 32 33 34 35 -36 37 38 -39 40 1 3 5 6 8 11 12 13 17 20 22 24 26 0
27 28 -29 30 31 32 33 34 35 -36 37 38 -39 40 1 3 5 6 8 11 12 16 17 20 22 24 26 0
27 28 -29 30 31 32 33 34 35 -36 37 38 -39 40 1 3 5 6 8 12 13 17 18 20 22 24 26 0
27 28 -29 30 31 32 33 34 35 -36 37 38 -39 40 1 3 5 6 8 12 16 17 18 20 22 24 26 0
27 28 -29 30 31 32 33 34 35 -36 37 38 -39 40 3 5 8 11 12 13 14 17 20 22 24 26 0
27 28 -29 30 31 32 33 34 35 -36 37 38 -39 40 3 5 8 11 12 14 16 17 20 22 24 26 0
27 28 -29 30 31 32 33 34 35 -36 37 38 -39 40 3 5 8 12 13 14 17 18 20 22 24 26 0
27 28 -29 30 31 32 33 34 35 -36 37 38 -39 40 3 5 8 12 14 16 17 18 20 22 24 26 0
27 28 29 -30 31 32 33 34 35 -36 37 38 -39 40 1 4 5 6 7 8 9 11 12 13 16 17 18 0
27 28 29 -30 31 32 33 34 35 -36 37 38 -39 40 1 4 5 6 7 8 9 12 13 16 17 18 22 0
27 28 29 -30 31 32 33 34 35 -36 37 38 -39 40 1 4 5 6 8 9 11 12 13 17 18 20 26 0
27 28 29 -30 31 32 33 34 35 -36 37 38 -39 40 1 4 5 6 8 9 11 12 16 17 18 20 0
27 28 29 -30 31 32 33 34 35 -36 37 38 -39 40 1 4 5 6 8 9 12 13 17 18 20 22 26 0
27 28 29 -30 31 32 33 34 35 -36 37 38 -39 40 1 4 5 6 8 9 12 16 17 18 20 22 0
27 28 29 -30 31 32 33 34 35 -36 37 38 -39 40 1 5 6 7 8 9 11 12 13 17 18 26 0
27 28 29 -30 31 32 33 34 35 -36 37 38 -39 40 1 5 6 7 8 9 11 12 16 17 18 20 26 0
27 28 29 -30 31 32 33 34 35 -36 37 38 -39 40 1 5 6 7 8 9 12 13 17 18 22 26 0
27 28 29 -30 31 32 33 34 35 -36 37 38 -39 40 1 5 6 7 8 9 12 16 17 18 20 22 26 0
27 28 29 -30 31 32 33 34 35 -36 37 38 -39 40 4 5 6 7 8 9 11 12 13 14 16 17 18 0
27 28 29 -30 31 32 33 34 35 -36 37 38 -39 40 4 5 6 7 8 9 12 13 14 16 17 18 22 0
27 28 29 -30 31 32 33 34 35 -36 37 38 -39 40 4 5 6 8 9 11 12 13 14 17 18 20 26 0
27 28 29 -30 31 32 33 34 35 -36 37 38 -39 40 4 5 6 8 9 11 12 14 16 17 18 20 0
27 28 29 -30 31 32 33 34 35 -36 37 38 -39 40 4 5 6 8 9 12 13 14 17 18 20 22 26 0
27 28 29 -30 31 32 33 34 35 -36 37 38 -39 40 4 5 6 8 9 12 14 16 17 18 20 22 0
27 28 29 -30 31 32 33 34 35 -36 37 38 -39 40 5 6 7 8 9 11 12 13 14 17 18 26 0
27 28 29 -30 31 32 33 34 35 -36 37 38 -39 40 5 6 7 8 9 11 12 14 16 17 18 20 26 0
27 28 29 -30 31 32 33 34 35 -36 37 38 -39 40 5 6 7 8 9 12 13 14 17 18 22 26 0
27 28 29 -30 31 32 33 34 35 -36 37 38 -39 40 5 6 7 8 9 12 14 16 17 18 20 22 26 0
27 -28 29 -30 31 32 33 34 35 -36 37 38 -39 40 4 5 6 7 8 9 11 12 13 16 17 0
27 -28 29 -30 31 32 33 34 35 -36 37 38 -39 40 4 5 6 8 9 11 12 13 17 20 26 0
27 -28 29 -30 31 32 33 34 35 -36 37 38 -39 40 4 5 6 8 9 11 12 16 17 20 0
27 -28 29 -30 31 32 33 34 35 -36 37 38 -39 40 5 6 7 8 9 11 12 13 17 26 0
27 -28 29 -30 31 32 33 34 35 -36 37 38 -39 40 5 6 7 8 9 11 12 16 17 20 26 0
27 28 -29 -30 31 32 33 34 35 -36 37 38 -39 40 1 5 6 8 12 13 17 18 20 22 26 0
27 28 -29 -30 31 32 33 34 35 -36 37 38 -39 40 1 5 6 8 12 16 17 18 20 22 26 0
27 28 -29 -30 31 32 33 34 35 -36 37 38 -39 40 5 6 8 12 13 14 17 18 20 22 26 0
27 28 -29 -30 31 32 33 34 35 -36 37 38 -39 40 5 6 8 12 14 16 17 18 20 22 26 0
27 -28 -29 -30 31 32 33 34 35 -36 37 38 -39 40 5 6 8 11 12 13 17 20 22 26 0
27 -28 -29 -30 31 32 33 34 35 -36 37 38 -39 40 5 6 8 11 12 16 17 20 22 26 0
27 28 29 30 -31 -32 33 34 35 -36 37 38 -39 40 1 2 3 6 7 8 11 12 13 16 17 18 0
27 28 29 30 -31 -32 33 34 35 -36 37 38 -39 40 1 2 3 6 7 8 11 12 13 16 17 24 0
27 28 29 30 -31 -32 33 34 35 -36 37 38 -39 40 1 2 3 6 7 8 11 12 16 17 18 20 0
27 28 29 30 -31 -32 33 34 35 -36 37 38 -39 40 1 2 3 6 7 8 11 12 16 17 20 24 0
27 28 29 30 -31 -32 33 34 35 -36 37 38 -39 40 2 3 7 8 11 12 13 14 16 17 18 0
27 28 29 30 -31 -32 33 34 35 -36 37 38 -39 40 2 3 7 8 11 12 13 14 16 17 24 0
27 28 29 30 -31 -32 33 34 35 -36 37 38 -39 40 2 3 7 8 11 12 14 16 17 18 20 0
27 28 29 30 -31 -32 33 34 35 -36 37 38 -39 40 2 3 7 8 11 12 14 16 17 20 24 0
27 -28 29 30 -31 -32 33 34 35 -36 37 38 -39 40 2 3 6 7 8 11 12 13 16 17 0
27 -28 29 30 -31 -32 33 34 35 -36 37 38 -39 40 2 3 6 7 8 11 12 16 17 20 0
27 28 -29 30 -31 -32 33 34 35 -36 37 38 -39 40 1 3 6 8 11 12 16 17 20 24 0
27 28 -29 30 -31 -32 33 34 35 -36 37 38 -39 40 3 8 11 12 14 16 17 20 24 0
27 28 -29 -30 -31 -32 33 34 35 -36 37 38 -39 40 1 6 8 11 12 16 17 18 20 0
27 28 -29 -30 -31 -32 33 34 35 -36 37 38 -39 40 6 8 11 12 14 16 17 18 20 0
27 -28 -29 -30 -31 -32 33 34 35 -36 37 38 -39 40 6 8 11 12 16 17 20 0
27 28 29 30 31 32 -33 34 35 -36 37 38 -39 40 1 2 3 4 5 7 8 9 11 12 16 17 18 0
27 28 29 30 31 32 -33 34 35 -36 37 38 -39 40 1 2 3 4 5 7 8 11 12 16 17 22 24 0
27 28 29 30 31 32 -33 34 35 -36 37 38 -39 40 1 2 3 4 5 7 8 12 16 17 18 22 0
27 28 29 30 31 32 -33 34 35 -36 37 38 -39 40 1 2 3 5 7 8 9 11 12 16 17 18 26 0
27 28 29 30 31 32 -33 34 35 -36 37 38 -39 40 1 2 3 5 7 8 11 12 16 17 22 24 26 0
27 28 29 30 31 32 -33 34 35 -36 37 38 -39 40 1 2 3 5 7 8 12 16 17 18 22 26 0
27 28 29 30 31 32 -33 34 35 -36 37 38 -39 40 1 3 4 5 7 8 9 11 12 16 17 24 0
27 28 29 30 31 32 -33 34 35 -36 37 38 -39 40 1 3 4 5 7 8 9 12 16 17 18 22 24 0
27 28 29 30 31 32 -33 34 35 -36 37 38 -39 40 1 3 5 7 8 9 11 12 16 17 24 26 0
27 28 29 30 31 32 -33 34 35 -36 37 38 -39 40 1 3 5 7 8 9 12 16 17 18 22 24 26 0
27 -28 29 30 31 32 -33 34 35 -36 37 38 -39 40 2 3 4 5 7 8 9 11 12 16 17 0
27 -28 29 30 31 32 -33 34 35 -36 37 38 -39 40 2 3 4 5 7 8 11 12 16 17 22 0
27 -28 29 30 31 32 -33 34 35 -36 37 38 -39 40 2 3 5 7 8 9 11 12 16 17 26 0
27 -28 29 30 31 32 -33 34 35 -36 37 38 -39 40 2 3 5 7 8 11 12 16 17 22 26 0
27 28 29 30 -31 -32 -33 34 35 -36 37 38 -39 40 1 2 3 7 8 11 12 16 17 18 0
27 28 29 30 -31 -32 -33 34 35 -36 37 38 -39 40 1 2 3 7 8 11 12 16 17 24 0
27 -28 29 30 -31 -32 -33 34 35 -36 37 38 -39 40 2 3 7 8 11 12 16 17 0
27 28 29 30 31 32 33 -34 35 -36 37 38 -39 40 1 2 3 4 5 6 9 11 12 13 16 17 18 0
27 28 29 30 31 32 33 -34 35 -36 37 38 -39 40 1 2 3 4 5 6 9 11 12 13 17 18 26 0
27 28 29 30 31 32 33 -34 35 -36 37 38 -39 40 1 2 3 4 5 6 11 12 13 16 17 22 24 0
27 28 29 30 31 32 33 -34 35 -36 37 38 -39 40 1 2 3 4 5 6 11 12 13 17 22 24 26 0
27 28 29 30 31 32 33 -34 35 -36 37 38 -39 40 1 2 3 4 5 6 12 13 16 17 18 22 0
27 28 29 30 31 32 33 -34 35 -36 37 38 -39 40 1 2 3 4 5 6 12 13 17 18 22 26 0
27 28 29 30 31 32 33 -34 35 -36 37 38 -39 40 1 2 3 4 5 9 11 12 13 14 16 17 18 0
27 28 29 30 31 32 33 -34 35 -36 37 38 -39 40 1 2 3 4 5 9 11 12 13 14 17 18 26 0
27 28 29 30 31 32 33 -34 35 -36 37 38 -39 40 1 2 3 4 5 11 12 13 14 16 17 22 24 0
27 28 29 30 31 32 33 -34 35 -36 37 38 -39 40 1 2 3 4 5 11 12 13 14 17 22 24 26 0
27 28 29 30 31 32 33 -34 35 -36 37 38 -39 40 1 2 3 4 5 12 13 14 16 17 18 22 0
27 28 29 30 31 32 33 -34 35 -36 37 38 -39 40 1 2 3 4 5 12 13 14 17 18 22 26 0
27 28 29 30 31 32 33 -34 35 -36 37 38 -39 40 1 3 4 5 6 9 11 12 13 16 17 24 0
27 28 29 30 31 32 33 -34 35 -36 37 38 -39 40 1 3 4 5 6 9 11 12 13 17 24 26 0
27 28 29 30 31 32 33 -34 35 -36 37 38 -39 40 1 3 4 5 6 9 12 13 16 17 18 22 24 0
27 28 29 30 31 32 33 -34 35 -36 37 38 -39 40 1 3 4 5 6 9 12 13 17 18 22 24 26 0
27 28 29 30 31 32 33 -34 35 -36 37 38 -39 40 1 3 4 5 9 11 12 13 14 16 17 24 0
27 28 29 30 31 32 33 -34 35 -36 37 38 -39 40 1 3 4 5 9 11 12 13 14 17 24 26 0
27 28 29 30 31 32 33 -34 35 -36 37 38 -39 40 1 3 4 5 9 12 13 14 16 17 18 22 24 0
27 28 29 30 31 32 33 -34 35 -36 37 38 -39 40 1 3 4 5 9 12 13 14 17 18 22 24 26 0
27 28 -29 30 31 32 33 -34 35 -36 37 38 -39 40 1 3 5 6 11 12 13 17 22 24 26 0
27 28 -29 30 31 32 33 -34 35 -36 37 38 -39 40 1 3 5 6 12 13 17 18 22 24 26 0
27 28 -29 30 31 32 33 -34 35 -36 37 38 -39 40 1 3 5 11 12 13 14 17 22 24 26 0
27 28 -29 30 31 32 33 -34 35 -36 37 38 -39 40 1 3 5 12 13 14 17 18 22 24 26 0
27 28 29 -30 31 32 33 -34 35 -36 37 38 -39 40 1 4 5 6 9 11 12 13 16 17 18 0
27 28 29 -30 31 32 33 -34 35 -36 37 38 -39 40 1 4 5 6 9 11 12 13 17 18 26 0
27 28 29 -30 31 32 33 -34 35 -36 37 38 -39 40 1 4 5 6 9 12 13 16 17 18 22 0
27 28 29 -30 31 32 33 -34 35 -36 37 38 -39 40 1 4 5 6 9 12 13 17 18 22 26 0
-27 28 29 -30 31 32 33 -34 35 -36 37 38 -39 40 4 5 9 11 12 13 14 16 17 18 0
-27 28 29 -30 31 32 33 -34 35 -36 37 38 -39 40 4 5 9 11 12 13 14 17 18 26 0
-27 28 29 -30 31 32 33 -34 35 -36 37 38 -39 40 4 5 9 12 13 14 16 17 18 22 0
-27 28 29 -30 31 32 33 -34 35 -36 37 38 -39 40 4 5 9 12 13 14 17 18 22 26 0
27 28 -29 -30 31 32 33 -34 35 -36 37 38 -39 40 1 5 6 12 13 17 18 22 26 0
-27 28 -29 -30 31 32 33 -34 35 -36 37 38 -39 40 5 12 13 14 17 18 22 26 0
27 28 -29 30 -31 -32 33 -34 35 -36 37 38 -39 40 1 3 6 11 12 13 16 17 24 0
27 28 -29 30 -31 -32 33 -34 35 -36 37 38 -39 40 1 3 11 12 13 14 16 17 24 0
27 28 -29 -30 -31 -32 33 -34 35 -36 37 38 -39 40 1 6 11 12 13 16 17 18 0
-27 28 -29 -30 -31 -32 33 -34 35 -36 37 38 -39 40 11 12 13 14 16 17 18 0
27 28 29 30 31 32 -33 -34 35 -36 37 38 -39 40 1 2 3 4 5 9 11 12 16 17 18 0
27 28 29 30 31 32 -33 -34 35 -36 37 38 -39 40 1 2 3 4 5 11 12 16 17 22 24 0
27 28 29 30 31 32 -33 -34 35 -36 37 38 -39 40 1 2 3 4 5 12 16 17 18 22 0
27 28 29 30 31 32 -33 -34 35 -36 37 38 -39 40 1 3 4 5 9 11 12 16 17 24 0
27 28 29 30 31 32 -33 -34 35 -36 37 38 -39 40 1 3 4 5 9 12 16 17 18 22 24 0
27 28 -29 30 31 32 -33 -34 35 -36 37 38 -39 40 1 3 5 11 12 16 17 22 24 26 0
27 28 -29 30 31 32 -33 -34 35 -36 37 38 -39 40 1 3 5 12 16 17 18 22 24 26 0
-27 -28 29 -30 31 32 -33 -34 35 -36 37 38 -39 40 4 5 9 11 12 16 17 0
-27 -28 -29 -30 31 32 -33 -34 35 -36 37 38 -39 40 5 11 12 16 17 22 26 0
27 28 -29 30 -31 -32 -33 -34 35 -36 37 38 -39 40 1 3 11 12 16 17 24 0
-27 -28 -29 -30 -31 -32 -33 -34 35 -36 37 38 -39 40 11 12 16 17 0
27 28 29 30 31 32 33 34 35 36 -37 38 -39 40 1 2 3 4 5 6 8 10 12 17 20 21 22 24 26 0
27 28 29 30 31 32 33 34 35 36 -37 38 -39 40 1 2 3 4 5 6 12 17 19 20 21 22 24 26 0
27 28 29 30 31 32 33 34 35 36 -37 38 -39 40 1 2 3 4 5 12 14 17 19 20 21 22 24 26 0
27 28 29 30 31 32 33 34 35 36 -37 38 -39 40 1 2 3 5 6 7 8 10 12 17 20 21 22 24 26 0
27 28 29 30 31 32 33 34 35 36 -37 38 -39 40 1 2 3 5 6 7 12 17 19 20 21 22 24 26 0
27 28 29 30 31 32 33 34 35 36 -37 38 -39 40 1 2 3 5 7 12 14 17 19 20 21 22 24 26 0
27 28 29 30 31 32 33 34 35 36 -37 38 -39 40 1 3 4 5 6 8 9 10 12 17 20 21 22 24 26 0
27 28 29 30 31 32 33 34 35 36 -37 38 -39 40 1 3 4 5 6 9 12 17 19 20 21 22 24 26 0
27 28 29 30 31 32 33 34 35 36 -37 38 -39 40 1 3 4 5 9 12 14 17 19 20 21 22 24 26 0
27 28 29 30 31 32 33 34 35 36 -37 38 -39 40 1 3 5 6 7 8 9 10 12 17 20 21 22 24 26 0
27 28 29 30 31 32 33 34 35 36 -37 38 -39 40 1 3 5 6 7 9 12 17 19 20 21 22 24 26 0
27 28 29 30 31 32 33 34 35 36 -37 38 -39 40 1 3 5 7 9 12 14 17 19 20 21 22 24 26 0
27 28 29 30 31 32 33 34 35 36 -37 38 -39 40 2 3 4 5 8 10 12 14 17 20 21 22 24 26 0
27 28 29 30 31 32 33 34 35 36 -37 38 -39 40 2 3 4 5 8 12 14 17 19 20 21 22 24 26 0
27 28 29 30 31 32 33 34 35 36 -37 38 -39 40 2 3 5 7 8 10 12 14 17 20 21 22 24 26 0
27 28 29 30 31 32 33 34 35 36 -37 38 -39 40 2 3 5 7 8 12 14 17 19 20 21 22 24 26 0
27 28 29 30 31 32 33 34 35 36 -37 38 -39 40 3 4 5 8 9 10 12 14 17 20 21 22 24 26 0
27 28 29 30 31 32 33 34 35 36 -37 38 -39 40 3 4 5 8 9 12 14 17 19 20 21 22 24 26 0
27 28 29 30 31 32 33 34 35 36 -37 38 -39 40 3 5 7 8 9 10 12 14 17 20 21 22 24 26 0
27 28 29 30 31 32 33 34 35 36 -37 38 -39 40 3 5 7 8 9 12 14 17 19 20 21 22 24 26 0
27 -28 29 30 31 32 33 34 35 36 -37 38 -39 40 2 3 4 5 6 8 10 12 17 20 21 22 26 0
27 -28 29 30 31 32 33 34 35 36 -37 38 -39 40 2 3 4 5 6 8 12 17 19 20 21 22 26 0
27 -28 29 30 31 32 33 34 35 36 -37 38 -39 40 2 3 5 6 7 8 10 12 17 20 21 22 26 0
27 -28 29 30 31 32 33 34 35 36 -37 38 -39 40 2 3 5 6 7 8 12 17 19 20 21 22 26 0
27 28 -29 30 31 32 33 34 35 36 -37 38 -39 40 1 3 5 6 8 10 12 17 20 21 22 24 26 0
27 28 -29 30 31 32 33 34 35 36 -37 38 -39 40 1 3 5 6 12 17 19 20 21 22 24 26 0
27 28 -29 30 31 32 33 34 35 36 -37 38 -39 40 1 3 5 12 14 17 19 20 21 22 24 26 0
27 28 -29 30 31 32 33 34 35 36 -37 38 -39 40 3 5 8 10 12 14 17 20 21 22 24 26 0
27 28 -29 30 31 32 33 34 35 36 -37 38 -39 40 3 5 8 12 14 17 19 20 21 22 24 26 0
27 -28 29 -30 31 32 33 34 35 36 -37 38 -39 40 4 5 6 8 9 10 12 17 20 21 22 26 0
27 -28 29 -30 31 32 33 34 35 36 -37 38 -39 40 4 5 6 8 9 12 17 19 20 21 22 26 0
27 -28 29 -30 31 32 33 34 35 36 -37 38 -39 40 5 6 7 8 9 10 12 17 20 21 22 26 0
27 -28 29 -30 31 32 33 34 35 36 -37 38 -39 40 5 6 7 8 9 12 17 19 20 21 22 26 0
27 -28 -29 -30 31 32 33 34 35 36 -37 38 -39 40 5 6 8 10 12 17 20 21 22 26 0
27 -28 -29 -30 31 32 33 34 35 36 -37 38 -39 40 5 6 8 12 17 19 20 21 22 26 0
27 28 29 30 31 32 -33 34 35 36 -37 38 -39 40 1 2 3 5 7 8 10 12 17 21 22 24 26 0
27 28 29 30 31 32 -33 34 35 36 -37 38 -39 40 1 2 3 5 7 12 17 19 21 22 24 26 0
27 28 29 30 31 32 -33 34 35 36 -37 38 -39 40 1 3 5 7 8 9 10 12 17 21 22 24 26 0
27 28 29 30 31 32 -33 34 35 36 -37 38 -39 40 1 3 5 7 9 12 17 19 21 22 24 26 0
27 -28 29 30 31 32 -33 34 35 36 -37 38 -39 40 2 3 5 7 8 10 12 17 21 22 26 0
27 -28 29 30 31 32 -33 34 35 36 -37 38 -39 40 2 3 5 7 8 12 17 19 21 22 26 0
-27 -28 29 -30 31 32 -33 34 35 36 -37 38 -39 40 5 7 9 12 17 19 21 22 26 0
27 28 29 30 31 32 -33 -34 35 36 -37 38 -39 40 1 2 3 4 5 10 12 17 21 22 24 26 0
27 28 29 30 31 32 -33 -34 35 36 -37 38 -39 40 1 3 4 5 9 10 12 17 21 22 24 26 0
27 28 -29 30 31 32 -33 -34 35 36 -37 38 -39 40 1 3 5 10 12 17 21 22 24 26 0
-27 -28 29 -30 31 32 -33 -34 35 36 -37 38 -39 40 4 5 9 10 12 17 21 22 26 0
-27 -28 -29 -30 31 32 -33 -34 35 36 -37 38 -39 40 5 10 12 17 21 22 26 0
27 28 29 30 31 32 33 34 35 -36 -37 38 -39 40 1 2 3 4 5 6 8 12 17 20 22 24 26 0
27 28 29 30 31 32 33 34 35 -36 -37 38 -39 40 1 2 3 5 6 7 8 12 17 20 22 24 26 0
27 28 29 30 31 32 33 34 35 -36 -37 38 -39 40 1 3 4 5 6 8 9 12 17 20 22 24 26 0
27 28 29 30 31 32 33 34 35 -36 -37 38 -39 40 1 3 5 6 7 8 9 12 17 20 22 24 26 0
27 28 29 30 31 32 33 34 35 -36 -37 38 -39 40 2 3 4 5 8 12 14 17 20 22 24 26 0
27 28 29 30 31 32 33 34 35 -36 -37 38 -39 40 2 3 5 7 8 12 14 17 20 22 24 26 0
27 28 29 30 31 32 33 34 35 -36 -37 38 -39 40 3 4 5 8 9 12 14 17 20 22 24 26 0
27 28 29 30 31 32 33 34 35 -36 -37 38 -39 40 3 5 7 8 9 12 14 17 20 22 24 26 0
27 -28 29 30 31 32 33 34 35 -36 -37 38 -39 40 2 3 4 5 6 8 12 17 20 22 26 0
27 -28 29 30 31 32 33 34 35 -36 -37 38 -39 40 2 3 5 6 7 8 12 17 20 22 26 0
27 28 -29 30 31 32 33 34 35 -36 -37 38 -39 40 1 3 5 6 8 12 17 20 22 24 26 0
27 28 -29 30 31 32 33 34 35 -36 -37 38 -39 40 3 5 8 12 14 17 20 22 24 26 0
27 -28 29 -30 31 32 33 34 35 -36 -37 38 -39 40 4 5 6 8 9 12 17 20 22 26 0
27 -28 29 -30 31 32 33 34 35 -36 -37 38 -39 40 5 6 7 8 9 12 17 20 22 26 0
27 -28 -29 -30 31 32 33 34 35 -36 -37 38 -39 40 5 6 8 12 17 20 22 26 0
27 28 29 30 31 32 -33 34 35 -36 -37 38 -39 40 1 2 3 5 7 8 12 17 22 24 26 0
27 28 29 30 31 32 -33 34 35 -36 -37 38 -39 40 1 3 5 7 8 9 12 17 22 24 26 0
27 -28 29 30 31 32 -33 34 35 -36 -37 38 -39 40 2 3 5 7 8 12 17 22 26 0
27 28 29 30 31 32 -33 -34 35 -36 -37 38 -39 40 1 2 3 4 5 12 17 22 24 26 0
27 28 29 30 31 32 -33 -34 35 -36 -37 38 -39 40 1 3 4 5 9 12 17 22 24 26 0
27 28 -29 30 31 32 -33 -34 35 -36 -37 38 -39 40 1 3 5 12 17 22 24 26 0
-27 -28 29 -30 31 32 -33 -34 35 -36 -37 38 -39 40 4 5 9 12 17 22 26 0
-27 -28 -29 -30 31 32 -33 -34 35 -36 -37 38 -39 40 5 12 17 22 26 0
27 28 29 30 31 32 33 34 35 36 37 38 39 -40 1 2 3 4 6 7 8 9 10 11 12 13 15 18 21 25 0
27 28 29 30 31 32 33 34 35 36 37 38 39 -40 1 2 3 4 6 7 8 10 11 12 13 15 21 22 24 25 0
27 28 29 30 31 32 33 34 35 36 37 38 39 -40 1 2 3 4 6 7 8 10 12 13 15 18 21 22 25 0
27 28 29 30 31 32 33 34 35 36 37 38 39 -40 1 2 3 4 6 7 9 10 11 12 13 15 18 19 21 25 0
27 28 29 30 31 32 33 34 35 36 37 38 39 -40 1 2 3 4 6 7 10 11 12 13 15 19 21 22 24 25 0
27 28 29 30 31 32 33 34 35 36 37 38 39 -40 1 2 3 4 6 7 10 12 13 15 18 19 21 22 25 0
27 28 29 30 31 32 33 34 35 36 37 38 39 -40 1 2 3 4 6 8 9 10 11 12 13 15 18 20 21 25 0
27 28 29 30 31 32 33 34 35 36 37 38 39 -40 1 2 3 4 6 8 10 11 12 13 15 20 21 22 24 25 0
27 28 29 30 31 32 33 34 35 36 37 38 39 -40 1 2 3 4 6 8 10 12 13 15 18 20 21 22 25 0
27 28 29 30 31 32 33 34 35 36 37 38 39 -40 1 2 3 4 6 9 10 11 12 13 15 18 19 20 21 25 0
27 28 29 30 31 32 33 34 35 36 37 38 39 -40 1 2 3 4 6 10 11 12 13 15 19 20 21 22 24 25 0
27 28 29 30 31 32 33 34 35 36 37 38 39 -40 1 2 3 4 6 10 12 13 15 18 19 20 21 22 25 0
27 28 29 30 31 32 33 34 35 36 37 38 39 -40 1 2 3 4 7 9 10 11 12 13 14 15 18 19 21 25 0
27 28 29 30 31 32 33 34 35 36 37 38 39 -40 1 2 3 4 7 9 10 11 12 13 14 18 19 21 23 25 0
27 28 29 30 31 32 33 34 35 36 37 38 39 -40 1 2 3 4 7 10 11 12 13 14 15 19 21 22 24 25 0
27 28 29 30 31 32 33 34 35 36 37 38 39 -40 1 2 3 4 7 10 11 12 13 14 19 21 22 23 24 25 0
27 28 29 30 31 32 33 34 35 36 37 38 39 -40 1 2 3 4 7 10 12 13 14 15 18 19 21 22 25 0
27 28 29 30 31 32 33 34 35 36 37 38 39 -40 1 2 3 4 7 10 12 13 14 18 19 21 22 23 25 0
27 28 29 30 31 32 33 34 35 36 37 38 39 -40 1 2 3 4 9 10 11 12 13 14 15 18 19 20 21 25 0
27 28 29 30 31 32 33 34 35 36 37 38 39 -40 1 2 3 4 9 10 11 12 13 14 18 19 20 21 23 25 0
27 28 29 30 31 32 33 34 35 36 37 38 39 -40 1 2 3 4 10 11 12 13 14 15 19 20 21 22 24 25 0
27 28 29 30 31 32 33 34 35 36 37 38 39 -40 1 2 3 4 10 11 12 13 14 19 20 21 22 23 24 25 0
27 28 29 30 31 32 33 34 35 36 37 38 39 -40 1 2 3 4 10 12 13 14 15 18 19 20 21 22 25 0
27 28 29 30 31 32 33 34 35 36 37 38 39 -40 1 2 3 4 10 12 13 14 18 19 20 21 22 23 25 0
27 28 29 30 31 32 33 34 35 36 37 38 39 -40 1 2 4 6 7 8 9 10 11 12 13 18 21 23 25 0
27 28 29 30 31 32 33 34 35 36 37 38 39 -40 1 2 4 6 7 8 10 11 12 13 21 22 23 24 25 0
27 28 29 30 31 32 33 34 35 36 37 38 39 -40 1 2 4 6 7 8 10 12 13 18 21 22 23 25 0
27 28 29 30 31 32 33 34 35 36 37 38 39 -40 1 2 4 6 7 9 10 11 12 13 18 19 21 23 25 0
27 28 29 30 31 32 33 34 35 36 37 38 39 -40 1 2 4 6 7 10 11 12 13 19 21 22 23 24 25 0
27 28 29 30 31 32 33 34 35 36 37 38 39 -40 1 2 4 6 7 10 12 13 18 19 21 22 23 25 0
27 28 29 30 31 32 33 34 35 36 37 38 39 -40 1 2 4 6 8 9 10 11 12 13 18 20 21 23 25 0
27 28 29 30 31 32 33 34 35 36 37 38 39 -40 1 2 4 6 8 10 11 12 13 20 21 22 23 24 25 0
27 28 29 30 31 32 33 34 35 36 37 38 39 -40 1 2 4 6 8 10 12 13 18 20 21 22 23 25 0
27 28 29 30 31 32 33 34 35 36 37 38 39 -40 1 2 4 6 9 10 11 12 13 18 19 20 21 23 25 0
27 28 29 30 31 32 33 34 35 36 37 38 39 -40 1 2 4 6 10 11 12 13 19 20 21 22 23 24 25 0
27 28 29 30 31 32 33 34 35 36 37 38 39 -40 1 2 4 6 10 12 13 18 19 20 21 22 23 25 0
27 28 29 30 31 32 33 34 35 36 37 38 39 -40 1 3 4 6 7 8 9 10 11 12 13 15 21 24 25 0
27 28 29 30 31 32 33 34 35 36 37 38 39 -40 1 3 4 6 7 8 9 10 12 13 15 18 21 22 24 25 0
27 28 29 30 31 32 33 34 35 36 37 38 39 -40 1 3 4 6 7 9 10 11 12 13 15 19 21 24 25 0
27 28 29 30 31 32 33 34 35 36 37 38 39 -40 1 3 4 6 7 9 10 12 13 15 18 19 21 22 24 25 0
27 28 29 30 31 32 33 34 35 36 37 38 39 -40 1 3 4 6 8 9 10 11 12 13 15 20 21 24 25 0
27 28 29 30 31 32 33 34 35 36 37 38 39 -40 1 3 4 6 8 9 10 12 13 15 18 20 21 22 24 25 0
27 28 29 30 31 32 33 34 35 36 37 38 39 -40 1 3 4 6 9 10 11 12 13 15 19 20 21 24 25 0
27 28 29 30 31 32 33 34 35 36 37 38 39 -40 1 3 4 6 9 10 12 13 15 18 19 20 21 22 24 25 0
27 28 29 30 31 32 33 34 35 36 37 38 39 -40 1 3 4 7 9 10 11 12 13 14 15 19 21 24 25 0
27 28 29 30 31 32 33 34 35 36 37 38 39 -40 1 3 4 7 9 10 11 12 13 14 19 21 23 24 25 0
27 28 29 30 31 32 33 34 35 36 37 38 39 -40 1 3 4 7 9 10 12 13 14 15 18 19 21 22 24 25 0
27 28 29 30 31 32 33 34 35 36 37 38 39 -40 1 3 4 7 9 10 12 13 14 18 19 21 22 23 24 25 0
27 28 29 30 31 32 33 34 35 36 37 38 39 -40 1 3 4 9 10 11 12 13 14 15 19 20 21 24 25 0
27 28 29 30 31 32 33 34 35 36 37 38 39 -40 1 3 4 9 10 11 12 13 14 19 20 21 23 24 25 0
27 28 29 30 31 32 33 34 35 36 37 38 39 -40 1 3 4 9 10 12 13 14 15 18 19 20 21 22 24 25 0
27 28 29 30 31 32 33 34 35 36 37 38 39 -40 1 3 4 9 10 12 13 14 18 19 20 21 22 23 24 25 0
27 28 29 30 31 32 33 34 35 36 37 38 39 -40 1 4 6 7 8 9 10 11 12 13 21 23 24 25 0
27 28 29 30 31 32 33 34 35 36 37 38 39 -40 1 4 6 7 8 9 10 12 13 18 21 22 23 24 25 0
27 28 29 30 31 32 33 34 35 36 37 38 39 -40 1 4 6 7 9 10 11 12 13 19 21 23 24 25 0
27 28 29 30 31 32 33 34 35 36 37 38 39 -40 1 4 6 7 9 10 12 13 18 19 21 22 23 24 25 0
27 28 29 30 31 32 33 34 35 36 37 38 39 -40 1 4 6 8 9 10 11 12 13 20 21 23 24 25 0
27 28 29 30 31 32 33 34 35 36 37 38 39 -40 1 4 6 8 9 10 12 13 18 20 21 22 23 24 25 0
27 28 29 30 31 32 33 34 35 36 37 38 39 -40 1 4 6 9 10 11 12 13 19 20 21 23 24 25 0
27 28 29 30 31 32 33 34 35 36 37 38 39 -40 1 4 6 9 10 12 13 18 19 20 21 22 23 24 25 0
27 28 29 30 31 32 33 34 35 36 37 38 39 -40 2 3 4 7 8 9 10 11 12 13 14 15 18 21 25 0
27 28 29 30 31 32 33 34 35 36 37 38 39 -40 2 3 4 7 8 9 10 11 12 13 14 18 21 23 25 0
27 28 29 30 31 32 33 34 35 36 37 38 39 -40 2 3 4 7 8 10 11 12 13 14 15 21 22 24 25 0
27 28 29 30 31 32 33 34 35 36 37 38 39 -40 2 3 4 7 8 10 11 12 13 14 21 22 23 24 25 0
27 28 29 30 31 32 33 34 35 36 37 38 39 -40 2 3 4 7 8 10 12 13 14 15 18 21 22 25 0
27 28 29 30 31 32 33 34 35 36 37 38 39 -40 2 3 4 7 8 10 12 13 14 18 21 22 23 25 0
27 28 29 30 31 32 33 34 35 36 37 38 39 -40 2 3 4 8 9 10 11 12 13 14 15 18 20 21 25 0
27 28 29 30 31 32 33 34 35 36 37 38 39 -40 2 3 4 8 9 10 11 12 13 14 18 20 21 23 25 0
27 28 29 30 31 32 33 34 35 36 37 38 39 -40 2 3 4 8 10 11 12 13 14 15 20 21 22 24 25 0
27 28 29 30 31 32 33 34 35 36 37 38 39 -40 2 3 4 8 10 11 12 13 14 20 21 22 23 24 25 0
27 28 29 30 31 32 33 34 35 36 37 38 39 -40 2 3 4 8 10 12 13 14 15 18 20 21 22 25 0
27 28 29 30 31 32 33 34 35 36 37 38 39 -40 2 3 4 8 10 12 13 14 18 20 21 22 23 25 0
27 28 29 30 31 32 33 34 35 36 37 38 39 -40 2 4 6 7 8 9 10 11 12 13 14 18 21 23 25 0
27 28 29 30 31 32 33 34 35 36 37 38 39 -40 2 4 6 7 8 10 11 12 13 14 21 22 23 24 25 0
27 28 29 30 31 32 33 34 35 36 37 38 39 -40 2 4 6 7 8 10 12 13 14 18 21 22 23 25 0
27 28 29 30 31 32 33 34 35 36 37 38 39 -40 2 4 6 8 9 10 11 12 13 14 18 20 21 23 25 0
27 28 29 30 31 32 33 34 35 36 37 38 39 -40 2 4 6 8 10 11 12 13 14 20 21 22 23 24 25 0
27 28 29 30 31 32 33 34 35 36 37 38 39 -40 2 4 6 8 10 12 13 14 18 20 21 22 23 25 0
27 28 29 30 31 32 33 34 35 36 37 38 39 -40 3 4 7 8 9 10 11 12 13 14 15 21 24 25 0
27 28 29 30 31 32 33 34 35 36 37 38 39 -40 3 4 7 8 9 10 11 12 13 14 21 23 24 25 0
27 28 29 30 31 32 33 34 35 36 37 38 39 -40 3 4 7 8 9 10 12 13 14 15 18 21 22 24 25 0
27 28 29 30 31 32 33 34 35 36 37 38 39 -40 3 4 7 8 9 10 12 13 14 18 21 22 23 24 25 0
27 28 29 30 31 32 33 34 35 36 37 38 39 -40 3 4 8 9 10 11 12 13 14 15 20 21 24 25 0
27 28 29 30 31 32 33 34 35 36 37 38 39 -40 3 4 8 9 10 11 12 13 14 20 21 23 24 25 0
27 28 29 30 31 32 33 34 35 36 37 38 39 -40 3 4 8 9 10 12 13 14 15 18 20 21 22 24 25 0
27 28 29 30 31 32 33 34 35 36 37 38 39 -40 3 4 8 9 10 12 13 14 18 20 21 22 23 24 25 0
27 28 29 30 31 32 33 34 35 36 37 38 39 -40 4 6 7 8 9 10 11 12 13 14 21 23 24 25 0
27 28 29 30 31 32 33 34 35 36 37 38 39 -40 4 6 7 8 9 10 12 13 14 18 21 22 23 24 25 0
27 28 29 30 31 32 33 34 35 36 37 38 39 -40 4 6 8 9 10 11 12 13 14 20 21 23 24 25 0
27 28 29 30 31 32 33 34 35 36 37 38 39 -40 4 6 8 9 10 12 13 14 18 20 21 22 23 24 25 0
-27 28 29 30 31 32 33 34 35 36 37 38 39 -40 2 4 7 9 10 11 12 13 14 18 19 21 23 25 0
-27 28 29 30 31 32 33 34 35 36 37 38 39 -40 2 4 7 10 11 12 13 14 19 21 22 23 24 25 0
-27 28 29 30 31 32 33 34 35 36 37 38 39 -40 2 4 7 10 12 13 14 18 19 21 22 23 25 0
-27 28 29 30 31 32 33 34 35 36 37 38 39 -40 2 4 9 10 11 12 13 14 18 19 20 21 23 25 0
-27 28 29 30 31 32 33 34 35 36 37 38 39 -40 2 4 10 11 12 13 14 19 20 21 22 23 24 25 0
-27 28 29 30 31 32 33 34 35 36 37 38 39 -40 2 4 10 12 13 14 18 19 20 21 22 23 25 0
-27 28 29 30 31 32 33 34 35 36 37 38 39 -40 4 7 9 10 11 12 13 14 19 21 23 24 25 0
-27 28 29 30 31 32 33 34 35 36 37 38 39 -40 4 7 9 10 12 13 14 18 19 21 22 23 24 25 0
-27 28 29 30 31 32 33 34 35 36 37 38 39 -40 4 9 10 11 12 13 14 19 20 21 23 24 25 0
-27 28 29 30 31 32 33 34 35 36 37 38 39 -40 4 9 10 12 13 14 18 19 20 21 22 23 24 25 0
27 -28 29 30 31 32 33 34 35 36 37 38 39 -40 2 3 4 6 7 8 9 10 11 12 13 15 21 25 0
27 -28 29 30 31 32 33 34 35 36 37 38 39 -40 2 3 4 6 7 8 10 11 12 13 15 21 22 25 0
27 -28 29 30 31 32 33 34 35 36 37 38 39 -40 2 3 4 6 8 9 10 11 12 13 15 20 21 25 0
27 -28 29 30 31 32 33 34 35 36 37 38 39 -40 2 3 4 6 8 10 11 12 13 15 20 21 22 25 0
27 -28 29 30 31 32 33 34 35 36 37 38 39 -40 2 4 6 7 8 9 10 11 12 13 21 23 25 0
27 -28 29 30 31 32 33 34 35 36 37 38 39 -40 2 4 6 7 8 10 11 12 13 21 22 23 25 0
27 -28 29 30 31 32 33 34 35 36 37 38 39 -40 2 4 6 8 9 10 11 12 13 20 21 23 25 0
27 -28 29 30 31 32 33 34 35 36 37 38 39 -40 2 4 6 8 10 11 12 13 20 21 22 23 25 0
27 28 29 -30 31 32 33 34 35 36 37 38 39 -40 1 4 6 7 8 9 10 11 12 13 15 18 21 25 0
27 28 29 -30 31 32 33 34 35 36 37 38 39 -40 1 4 6 7 8 9 10 12 13 15 18 21 22 25 0
27 28 29 -30 31 32 33 34 35 36 37 38 39 -40 1 4 6 7 9 10 11 12 13 15 18 19 21 25 0
27 28 29 -30 31 32 33 34 35 36 37 38 39 -40 1 4 6 7 9 10 12 13 15 18 19 21 22 25 0
27 28 29 -30 31 32 33 34 35 36 37 38 39 -40 1 4 6 8 9 10 11 12 13 15 18 20 21 25 0
27 28 29 -30 31 32 33 34 35 36 37 38 39 -40 1 4 6 8 9 10 12 13 15 18 20 21 22 25 0
27 28 29 -30 31 32 33 34 35 36 37 38 39 -40 1 4 6 9 10 11 12 13 15 18 19 20 21 25 0
27 28 29 -30 31 32 33 34 35 36 37 38 39 -40 1 4 6 9 10 12 13 15 18 19 20 21 22 25 0
27 28 29 -30 31 32 33 34 35 36 37 38 39 -40 4 6 7 8 9 10 11 12 13 14 15 18 21 25 0
27 28 29 -30 31 32 33 34 35 36 37 38 39 -40 4 6 7 8 9 10 12 13 14 15 18 21 22 25 0
27 28 29 -30 31 32 33 34 35 36 37 38 39 -40 4 6 8 9 10 11 12 13 14 15 18 20 21 25 0
27 28 29 -30 31 32 33 34 35 36 37 38 39 -40 4 6 8 9 10 12 13 14 15 18 20 21 22 25 0
-27 28 29 -30 31 32 33 34 35 36 37 38 39 -40 4 7 9 10 11 12 13 14 15 18 19 21 25 0
-27 28 29 -30 31 32 33 34 35 36 37 38 39 -40 4 7 9 10 12 13 14 15 18 19 21 22 25 0
-27 28 29 -30 31 32 33 34 35 36 37 38 39 -40 4 9 10 11 12 13 14 15 18 19 20 21 25 0
-27 28 29 -30 31 32 33 34 35 36 37 38 39 -40 4 9 10 12 13 14 15 18 19 20 21 22 25 0
27 -28 29 -30 31 32 33 34 35 36 37 38 39 -40 4 6 7 8 9 10 11 12 13 15 21 25 0
27 -28 29 -30 31 32 33 34 35 36 37 38 39 -40 4 6 8 9 10 11 12 13 15 20 21 25 0
27 28 29 30 31 32 33 -34 35 36 37 38 39 -40 1 2 3 4 6 9 10 11 12 13 15 18 21 25 0
27 28 29 30 31 32 33 -34 35 36 37 38 39 -40 1 2 3 4 6 10 11 12 13 15 21 22 24 25 0
27 28 29 30 31 32 33 -34 35 36 37 38 39 -40 1 2 3 4 6 10 12 13 15 18 21 22 25 0
27 28 29 30 31 32 33 -34 35 36 37 38 39 -40 1 2 3 4 9 10 11 12 13 14 15 18 21 25 0
27 28 29 30 31 32 33 -34 35 36 37 38 39 -40 1 2 3 4 9 10 11 12 13 14 18 21 23 25 0
27 28 29 30 31 32 33 -34 35 36 37 38 39 -40 1 2 3 4 10 11 12 13 14 15 21 22 24 25 0
27 28 29 30 31 32 33 -34 35 36 37 38 39 -40 1 2 3 4 10 11 12 13 14 21 22 23 24 25 0
27 28 29 30 31 32 33 -34 35 36 37 38 39 -40 1 2 3 4 10 12 13 14 15 18 21 22 25 0
27 28 29 30 31 32 33 -34 35 36 37 38 39 -40 1 2 3 4 10 12 13 14 18 21 22 23 25 0
27 28 29 30 31 32 33 -34 35 36 37 38 39 -40 1 2 4 6 9 10 11 12 13 18 21 23 25 0
27 28 29 30 31 32 33 -34 35 36 37 38 39 -40 1 2 4 6 10 11 12 13 21 22 23 24 25 0
27 28 29 30 31 32 33 -34 35 36 37 38 39 -40 1 2 4 6 10 12 13 18 21 22 23 25 0
27 28 29 30 31 32 33 -34 35 36 37 38 39 -40 1 3 4 6 9 10 11 12 13 15 21 24 25 0
27 28 29 30 31 32 33 -34 35 36 37 38 39 -40 1 3 4 6 9 10 12 13 15 18 21 22 24 25 0
27 28 29 30 31 32 33 -34 35 36 37 38 39 -40 1 3 4 9 10 11 12 13 14 15 21 24 25 0
27 28 29 30 31 32 33 -34 35 36 37 38 39 -40 1 3 4 9 10 11 12 13 14 21 23 24 25 0
27 28 29 30 31 32 33 -34 35 36 37 38 39 -40 1 3 4 9 10 12 13 14 15 18 21 22 24 25 0
27 28 29 30 31 32 33 -34 35 36 37 38 39 -40 1 3 4 9 10 12 13 14 18 21 22 23 24 25 0
27 28 29 30 31 32 33 -34 35 36 37 38 39 -40 1 4 6 9 10 11 12 13 21 23 24 25 0
27 28 29 30 31 32 33 -34 35 36 37 38 39 -40 1 4 6 9 10 12 13 18 21 22 23 24 25 0
-27 28 29 30 31 32 33 -34 35 36 37 38 39 -40 2 4 9 10 11 12 13 14 18 21 23 25 0
-27 28 29 30 31 32 33 -34 35 36 37 38 39 -40 2 4 10 11 12 13 14 21 22 23 24 25 0
-27 28 29 30 31 32 33 -34 35 36 37 38 39 -40 2 4 10 12 13 14 18 21 22 23 25 0
-27 28 29 30 31 32 33 -34 35 36 37 38 39 -40 4 9 10 11 12 13 14 21 23 24 25 0
-27 28 29 30 31 32 33 -34 35 36 37 38 39 -40 4 9 10 12 13 14 18 21 22 23 24 25 0
27 28 29 -30 31 32 33 -34 35 36 37 38 39 -40 1 4 6 9 10 11 12 13 15 18 21 25 0
27 28 29 -30 31 32 33 -34 35 36 37 38 39 -40 1 4 6 9 10 12 13 15 18 21 22 25 0
-27 28 29 -30 31 32 33 -34 35 36 37 38 39 -40 4 9 10 11 12 13 14 15 18 21 25 0
-27 28 29 -30 31 32 33 -34 35 36 37 38 39 -40 4 9 10 12 13 14 15 18 21 22 25 0
27 28 29 30 31 32 33 34 35 36 -37 38 39 -40 1 2 3 4 6 8 10 12 15 20 21 22 24 25 0
27 28 29 30 31 32 33 34 35 36 -37 38 39 -40 1 2 3 4 6 10 12 15 19 20 21 22 24 25 0
27 28 29 30 31 32 33 34 35 36 -37 38 39 -40 1 2 3 4 10 12 14 15 19 20 21 22 24 25 0
27 28 29 30 31 32 33 34 35 36 -37 38 39 -40 1 2 3 4 10 12 14 19 20 21 22 23 24 25 0
27 28 29 30 31 32 33 34 35 36 -37 38 39 -40 1 2 4 6 8 10 12 20 21 22 23 24 25 0
27 28 29 30 31 32 33 34 35 36 -37 38 39 -40 1 2 4 6 10 12 19 20 21 22 23 24 25 0
27 28 29 30 31 32 33 34 35 36 -37 38 39 -40 1 3 4 6 8 9 10 12 15 20 21 22 24 25 0
27 28 29 30 31 32 33 34 35 36 -37 38 39 -40 1 3 4 6 9 10 12 15 19 20 21 22 24 25 0
27 28 29 30 31 32 33 34 35 36 -37 38 39 -40 1 3 4 9 10 12 14 15 19 20 21 22 24 25 0
27 28 29 30 31 32 33 34 35 36 -37 38 39 -40 1 3 4 9 10 12 14 19 20 21 22 23 24 25 0
27 28 29 30 31 32 33 34 35 36 -37 38 39 -40 1 4 6 8 9 10 12 20 21 22 23 24 25 0
27 28 29 30 31 32 33 34 35 36 -37 38 39 -40 1 4 6 9 10 12 19 20 21 22 23 24 25 0
27 28 29 30 31 32 33 34 35 36 -37 38 39 -40 2 3 4 8 10 12 14 15 20 21 22 24 25 0
27 28 29 30 31 32 33 34 35 36 -37 38 39 -40 2 3 4 8 10 12 14 20 21 22 23 24 25 0
27 28 29 30 31 32 33 34 35 36 -37 38 39 -40 2 4 6 8 10 12 14 20 21 22 23 24 25 0
27 28 29 30 31 32 33 34 35 36 -37 38 39 -40 3 4 8 9 10 12 14 15 20 21 22 24 25 0
27 28 29 30 31 32 33 34 35 36 -37 38 39 -40 3 4 8 9 10 12 14 20 21 22 23 24 25 0
27 28 29 30 31 32 33 34 35 36 -37 38 39 -40 4 6 8 9 10 12 14 20 21 22 23 24 25 0
-27 28 29 30 31 32 33 34 35 36 -37 38 39 -40 2 4 10 12 14 19 20 21 22 23 24 25 0
-27 28 29 30 31 32 33 34 35 36 -37 38 39 -40 4 9 10 12 14 19 20 21 22 23 24 25 0
27 -28 29 30 31 32 33 34 35 36 -37 38 39 -40 2 3 4 6 8 10 12 15 20 21 22 25 0
27 -28 29 30 31 32 33 34 35 36 -37 38 39 -40 2 4 6 8 10 12 20 21 22 23 25 0
27 -28 29 -30 31 32 33 34 35 36 -37 38 39 -40 4 6 8 9 10 12 15 20 21 22 25 0
27 28 29 30 31 32 -33 34 35 36 -37 38 39 -40 1 2 3 4 7 8 10 12 15 21 22 24 25 0
27 28 29 30 31 32 -33 34 35 36 -37 38 39 -40 1 2 3 4 7 8 10 12 21 22 23 24 25 0
27 28 29 30 31 32 -33 34 35 36 -37 38 39 -40 1 2 3 4 7 10 12 15 19 21 22 24 25 0
27 28 29 30 31 32 -33 34 35 36 -37 38 39 -40 1 2 3 4 7 10 12 19 21 22 23 24 25 0
27 28 29 30 31 32 -33 34 35 36 -37 38 39 -40 1 3 4 7 8 9 10 12 15 21 22 24 25 0
27 28 29 30 31 32 -33 34 35 36 -37 38 39 -40 1 3 4 7 8 9 10 12 21 22 23 24 25 0
27 28 29 30 31 32 -33 34 35 36 -37 38 39 -40 1 3 4 7 9 10 12 15 19 21 22 24 25 0
27 28 29 30 31 32 -33 34 35 36 -37 38 39 -40 1 3 4 7 9 10 12 19 21 22 23 24 25 0
27 -28 29 30 31 32 -33 34 35 36 -37 38 39 -40 2 3 4 7 8 10 12 15 21 22 25 0
27 -28 29 30 31 32 -33 34 35 36 -37 38 39 -40 2 3 4 7 8 10 12 21 22 23 25 0
-27 -28 29 30 31 32 -33 34 35 36 -37 38 39 -40 2 4 7 10 12 19 21 22 23 25 0
-27 -28 29 -30 31 32 -33 34 35 36 -37 38 39 -40 4 7 9 10 12 15 19 21 22 25 0
27 28 29 30 31 32 -33 -34 35 36 -37 38 39 -40 1 2 3 4 10 12 15 21 22 24 25 0
27 28 29 30 31 32 -33 -34 35 36 -37 38 39 -40 1 2 3 4 10 12 21 22 23 24 25 0
27 28 29 30 31 32 -33 -34 35 36 -37 38 39 -40 1 3 4 9 10 12 15 21 22 24 25 0
27 28 29 30 31 32 -33 -34 35 36 -37 38 39 -40 1 3 4 9 10 12 21 22 23 24 25 0
-27 -28 29 30 31 32 -33 -34 35 36 -37 38 39 -40 2 4 10 12 21 22 23 25 0
-27 -28 29 -30 31 32 -33 -34 35 36 -37 38 39 -40 4 9 10 12 15 21 22 25 0
27 28 29 30 31 32 33 34 35 36 37 -38 39 -40 1 2 3 4 6 7 8 9 10 13 15 18 21 25 0
27 28 29 30 31 32 33 34 35 36 37 -38 39 -40 1 2 3 4 6 7 9 10 13 15 18 19 21 25 0
27 28 29 30 31 32 33 34 35 36 37 -38 39 -40 1 2 3 4 6 8 9 10 13 15 18 20 21 25 0
27 28 29 30 31 32 33 34 35 36 37 -38 39 -40 1 2 3 4 6 9 10 13 15 18 19 20 21 25 0
27 28 29 30 31 32 33 34 35 36 37 -38 39 -40 1 2 3 4 7 9 10 13 14 15 18 19 21 25 0
27 28 29 30 31 32 33 34 35 36 37 -38 39 -40 1 2 3 4 9 10 13 14 15 18 19 20 21 25 0
27 28 29 30 31 32 33 34 35 36 37 -38 39 -40 1 2 4 6 7 8 9 10 13 15 18 21 23 25 0
27 28 29 30 31 32 33 34 35 36 37 -38 39 -40 1 2 4 6 7 9 10 13 15 18 19 21 23 25 0
27 28 29 30 31 32 33 34 35 36 37 -38 39 -40 1 2 4 6 8 9 10 13 15 18 20 21 23 25 0
27 28 29 30 31 32 33 34 35 36 37 -38 39 -40 1 2 4 6 9 10 13 15 18 19 20 21 23 25 0
27 28 29 30 31 32 33 34 35 36 37 -38 39 -40 1 3 4 6 7 8 9 10 13 15 18 21 24 25 0
27 28 29 30 31 32 33 34 35 36 37 -38 39 -40 1 3 4 6 7 9 10 13 15 18 19 21 24 25 0
27 28 29 30 31 32 33 34 35 36 37 -38 39 -40 1 3 4 6 8 9 10 13 15 18 20 21 24 25 0
27 28 29 30 31 32 33 34 35 36 37 -38 39 -40 1 3 4 6 9 10 13 15 18 19 20 21 24 25 0
27 28 29 30 31 32 33 34 35 36 37 -38 39 -40 1 3 4 7 9 10 13 14 15 18 19 21 24 25 0
27 28 29 30 31 32 33 34 35 36 37 -38 39 -40 1 3 4 9 10 13 14 15 18 19 20 21 24 25 0
27 28 29 30 31 32 33 34 35 36 37 -38 39 -40 1 4 6 7 8 9 10 13 15 18 21 23 24 25 0
27 28 29 30 31 32 33 34 35 36 37 -38 39 -40 1 4 6 7 9 10 13 15 18 19 21 23 24 25 0
27 28 29 30 31 32 33 34 35 36 37 -38 39 -40 1 4 6 8 9 10 13 15 18 20 21 23 24 25 0
27 28 29 30 31 32 33 34 35 36 37 -38 39 -40 1 4 6 9 10 13 15 18 19 20 21 23 24 25 0
27 28 29 30 31 32 33 34 35 36 37 -38 39 -40 2 3 4 7 8 9 10 13 14 15 18 21 25 0
27 28 29 30 31 32 33 34 35 36 37 -38 39 -40 2 3 4 8 9 10 13 14 15 18 20 21 25 0
27 28 29 30 31 32 33 34 35 36 37 -38 39 -40 2 4 6 7 8 9 10 13 14 15 18 21 23 25 0
27 28 29 30 31 32 33 34 35 36 37 -38 39 -40 2 4 6 8 9 10 13 14 15 18 20 21 23 25 0
27 28 29 30 31 32 33 34 35 36 37 -38 39 -40 3 4 7 8 9 10 13 14 15 18 21 24 25 0
27 28 29 30 31 32 33 34 35 36 37 -38 39 -40 3 4 8 9 10 13 14 15 18 20 21 24 25 0
27 28 29 30 31 32 33 34 35 36 37 -38 39 -40 4 6 7 8 9 10 13 14 15 18 21 23 24 25 0
27 28 29 30 31 32 33 34 35 36 37 -38 39 -40 4 6 8 9 10 13 14 15 18 20 21 23 24 25 0
-27 28 29 30 31 32 33 34 35 36 37 -38 39 -40 2 4 7 9 10 13 14 15 18 19 21 23 25 0
-27 28 29 30 31 32 33 34 35 36 37 -38 39 -40 2 4 9 10 13 14 15 18 19 20 21 23 25 0
-27 28 29 30 31 32 33 34 35 36 37 -38 39 -40 4 7 9 10 13 14 15 18 19 21 23 24 25 0
-27 28 29 30 31 32 33 34 35 36 37 -38 39 -40 4 9 10 13 14 15 18 19 20 21 23 24 25 0
27 28 29 -30 31 32 33 34 35 36 37 -38 39 -40 1 4 6 7 8 9 10 13 15 18 21 25 0
27 28 29 -30 31 32 33 34 35 36 37 -38 39 -40 1 4 6 7 9 10 13 15 18 19 21 25 0
27 28 29 -30 31 32 33 34 35 36 37 -38 39 -40 1 4 6 8 9 10 13 15 18 20 21 25 0
27 28 29 -30 31 32 33 34 35 36 37 -38 39 -40 1 4 6 9 10 13 15 18 19 20 21 25 0
27 28 29 -30 31 32 33 34 35 36 37 -38 39 -40 4 6 7 8 9 10 13 14 15 18 21 25 0
27 28 29 -30 31 32 33 34 35 36 37 -38 39 -40 4 6 8 9 10 13 14 15 18 20 21 25 0
-27 28 29 -30 31 32 33 34 35 36 37 -38 39 -40 4 7 9 10 13 14 15 18 19 21 25 0
-27 28 29 -30 31 32 33 34 35 36 37 -38 39 -40 4 9 10 13 14 15 18 19 20 21 25 0
27 28 29 30 31 32 33 -34 35 36 37 -38 39 -40 1 2 3 4 6 9 10 13 15 18 21 25 0
27 28 29 30 31 32 33 -34 35 36 37 -38 39 -40 1 2 3 4 9 10 13 14 15 18 21 25 0
27 28 29 30 31 32 33 -34 35 36 37 -38 39 -40 1 2 4 6 9 10 13 15 18 21 23 25 0
27 28 29 30 31 32 33 -34 35 36 37 -38 39 -40 1 3 4 6 9 10 13 15 18 21 24 25 0
27 28 29 30 31 32 33 -34 35 36 37 -38 39 -40 1 3 4 9 10 13 14 15 18 21 24 25 0
27 28 29 30 31 32 33 -34 35 36 37 -38 39 -40 1 4 6 9 10 13 15 18 21 23 24 25 0
-27 28 29 30 31 32 33 -34 35 36 37 -38 39 -40 2 4 9 10 13 14 15 18 21 23 25 0
-27 28 29 30 31 32 33 -34 35 36 37 -38 39 -40 4 9 10 13 14 15 18 21 23 24 25 0
27 28 29 -30 31 32 33 -34 35 36 37 -38 39 -40 1 4 6 9 10 13 15 18 21 25 0
-27 28 29 -30 31 32 33 -34 35 36 37 -38 39 -40 4 9 10 13 14 15 18 21 25 0
27 28 29 30 31 32 33 34 -35 36 37 -38 39 -40 1 2 3 4 7 9 13 14 18 19 21 23 25 0
27 28 29 30 31 32 33 34 -35 36 37 -38 39 -40 1 2 3 4 9 13 14 18 19 20 21 23 25 0
27 28 29 30 31 32 33 34 -35 36 37 -38 39 -40 1 2 4 6 7 9 13 18 19 21 23 25 0
27 28 29 30 31 32 33 34 -35 36 37 -38 39 -40 1 2 4 6 9 13 18 19 20 21 23 25 0
27 28 29 30 31 32 33 34 -35 36 37 -38 39 -40 1 3 4 7 9 13 14 18 19 21 23 24 25 0
27 28 29 30 31 32 33 34 -35 36 37 -38 39 -40 1 3 4 9 13 14 18 19 20 21 23 24 25 0
27 28 29 30 31 32 33 34 -35 36 37 -38 39 -40 1 4 6 7 9 13 18 19 21 23 24 25 0
27 28 29 30 31 32 33 34 -35 36 37 -38 39 -40 1 4 6 9 13 18 19 20 21 23 24 25 0
27 28 29 30 31 32 33 34 -35 36 37 -38 39 -40 2 3 4 7 8 9 13 14 18 19 21 23 25 0
27 28 29 30 31 32 33 34 -35 36 37 -38 39 -40 2 3 4 8 9 13 14 18 19 20 21 23 25 0
27 28 29 30 31 32 33 34 -35 36 37 -38 39 -40 2 4 6 7 8 9 13 14 18 19 21 23 25 0
27 28 29 30 31 32 33 34 -35 36 37 -38 39 -40 2 4 6 8 9 13 14 18 19 20 21 23 25 0
27 28 29 30 31 32 33 34 -35 36 37 -38 39 -40 3 4 7 8 9 13 14 18 19 21 23 24 25 0
27 28 29 30 31 32 33 34 -35 36 37 -38 39 -40 3 4 8 9 13 14 18 19 20 21 23 24 25 0
27 28 29 30 31 32 33 34 -35 36 37 -38 39 -40 4 6 7 8 9 13 14 18 19 21 23 24 25 0
27 28 29 30 31 32 33 34 -35 36 37 -38 39 -40 4 6 8 9 13 14 18 19 20 21 23 24 25 0
-27 28 29 30 31 32 33 34 -35 36 37 -38 39 -40 2 4 7 9 13 14 18 19 21 23 25 0
-27 28 29 30 31 32 33 34 -35 36 37 -38 39 -40 2 4 9 13 14 18 19 20 21 23 25 0
-27 28 29 30 31 32 33 34 -35 36 37 -38 39 -40 4 7 9 13 14 18 19 21 23 24 25 0
-27 28 29 30 31 32 33 34 -35 36 37 -38 39 -40 4 9 13 14 18 19 20 21 23 24 25 0
27 28 29 30 31 32 33 34 -35 -36 37 -38 39 -40 1 2 4 5 6 7 8 9 13 18 23 25 0
27 28 29 30 31 32 33 34 -35 -36 37 -38 39 -40 1 2 4 5 6 8 9 13 18 20 23 25 0
27 28 29 30 31 32 33 34 -35 -36 37 -38 39 -40 1 4 5 6 7 8 9 13 18 23 24 25 0
27 28 29 30 31 32 33 34 -35 -36 37 -38 39 -40 1 4 5 6 8 9 13 18 20 23 24 25 0
27 28 29 30 31 32 33 34 -35 -36 37 -38 39 -40 2 3 4 5 7 8 9 13 14 18 23 25 0
27 28 29 30 31 32 33 34 -35 -36 37 -38 39 -40 2 3 4 5 8 9 13 14 18 20 23 25 0
27 28 29 30 31 32 33 34 -35 -36 37 -38 39 -40 2 4 5 6 7 8 9 13 14 18 23 25 0
27 28 29 30 31 32 33 34 -35 -36 37 -38 39 -40 2 4 5 6 8 9 13 14 18 20 23 25 0
27 28 29 30 31 32 33 34 -35 -36 37 -38 39 -40 3 4 5 7 8 9 13 14 18 23 24 25 0
27 28 29 30 31 32 33 34 -35 -36 37 -38 39 -40 3 4 5 8 9 13 14 18 20 23 24 25 0
27 28 29 30 31 32 33 34 -35 -36 37 -38 39 -40 4 5 6 7 8 9 13 14 18 23 24 25 0
27 28 29 30 31 32 33 34 -35 -36 37 -38 39 -40 4 5 6 8 9 13 14 18 20 23 24 25 0
27 28 29 30 31 -32 33 34 -35 -36 37 -38 39 -40 1 2 4 6 7 8 13 18 23 25 0
27 28 29 30 31 -32 33 34 -35 -36 37 -38 39 -40 1 2 4 6 8 13 18 20 23 25 0
27 28 29 30 31 -32 33 34 -35 -36 37 -38 39 -40 2 3 4 7 8 13 14 18 23 25 0
27 28 29 30 31 -32 33 34 -35 -36 37 -38 39 -40 2 3 4 8 13 14 18 20 23 25 0
27 28 29 30 31 -32 33 34 -35 -36 37 -38 39 -40 2 4 6 7 8 13 14 18 23 25 0
27 28 29 30 31 -32 33 34 -35 -36 37 -38 39 -40 2 4 6 8 13 14 18 20 23 25 0
27 28 29 30 31 32 33 -34 -35 -36 37 -38 39 -40 1 2 3 4 5 9 13 14 18 23 25 0
27 28 29 30 31 32 33 -34 -35 -36 37 -38 39 -40 1 2 4 5 6 9 13 18 23 25 0
27 28 29 30 31 32 33 -34 -35 -36 37 -38 39 -40 1 3 4 5 9 13 14 18 23 24 25 0
27 28 29 30 31 32 33 -34 -35 -36 37 -38 39 -40 1 4 5 6 9 13 18 23 24 25 0
-27 28 29 30 31 32 33 -34 -35 -36 37 -38 39 -40 2 4 5 9 13 14 18 23 25 0
-27 28 29 30 31 32 33 -34 -35 -36 37 -38 39 -40 4 5 9 13 14 18 23 24 25 0
27 28 29 30 31 -32 33 -34 -35 -36 37 -38 39 -40 1 2 3 4 13 14 18 23 25 0
27 28 29 30 31 -32 33 -34 -35 -36 37 -38 39 -40 1 2 4 6 13 18 23 25 0
-27 28 29 30 31 -32 33 -34 -35 -36 37 -38 39 -40 2 4 13 14 18 23 25 0
27 28 29 30 31 32 33 34 35 36 -37 -38 39 -40 1 3 4 6 8 9 10 15 20 21 24 25 0
27 28 29 30 31 32 33 34 35 36 -37 -38 39 -40 1 3 4 6 9 10 15 19 20 21 24 25 0
27 28 29 30 31 32 33 34 35 36 -37 -38 39 -40 1 3 4 9 10 14 15 19 20 21 24 25 0
27 28 29 30 31 32 33 34 35 36 -37 -38 39 -40 1 4 6 8 9 10 15 20 21 23 24 25 0
27 28 29 30 31 32 33 34 35 36 -37 -38 39 -40 1 4 6 9 10 15 19 20 21 23 24 25 0
27 28 29 30 31 32 33 34 35 36 -37 -38 39 -40 3 4 8 9 10 14 15 20 21 24 25 0
27 28 29 30 31 32 33 34 35 36 -37 -38 39 -40 4 6 8 9 10 14 15 20 21 23 24 25 0
-27 28 29 30 31 32 33 34 35 36 -37 -38 39 -40 4 9 10 14 15 19 20 21 23 24 25 0
27 -28 29 30 31 32 33 34 35 36 -37 -38 39 -40 2 3 4 6 8 9 10 15 20 21 25 0
27 -28 29 30 31 32 33 34 35 36 -37 -38 39 -40 2 4 6 8 9 10 15 20 21 23 25 0
27 -28 29 -30 31 32 33 34 35 36 -37 -38 39 -40 4 6 8 9 10 15 20 21 25 0
27 28 29 30 31 32 -33 34 35 36 -37 -38 39 -40 1 3 4 7 8 9 10 15 21 24 25 0
27 28 29 30 31 32 -33 34 35 36 -37 -38 39 -40 1 3 4 7 9 10 15 19 21 24 25 0
27 -28 29 30 31 32 -33 34 35 36 -37 -38 39 -40 2 3 4 7 8 9 10 15 21 25 0
-27 -28 29 30 31 32 -33 34 35 36 -37 -38 39 -40 2 4 7 9 10 15 19 21 23 25 0
-27 -28 29 -30 31 32 -33 34 35 36 -37 -38 39 -40 4 7 9 10 15 19 21 25 0
27 28 29 30 31 32 -33 -34 35 36 -37 -38 39 -40 1 3 4 9 10 15 21 24 25 0
-27 -28 29 30 31 32 -33 -34 35 36 -37 -38 39 -40 2 4 9 10 15 21 23 25 0
-27 -28 29 -30 31 32 -33 -34 35 36 -37 -38 39 -40 4 9 10 15 21 25 0
27 28 29 30 31 32 33 34 -35 36 -37 -38 39 -40 1 3 4 9 14 19 20 21 23 24 25 0
27 28 29 30 31 32 33 34 -35 36 -37 -38 39 -40 1 4 6 9 19 20 21 23 24 25 0
27 28 29 30 31 32 33 34 -35 36 -37 -38 39 -40 3 4 8 9 14 19 20 21 23 24 25 0
27 28 29 30 31 32 33 34 -35 36 -37 -38 39 -40 4 6 8 9 14 19 20 21 23 24 25 0
-27 28 29 30 31 32 33 34 -35 36 -37 -38 39 -40 4 9 14 19 20 21 23 24 25 0
27 -28 29 30 31 32 33 34 -35 36 -37 -38 39 -40 2 4 6 8 9 19 20 21 23 25 0
27 28 29 30 31 32 -33 34 -35 36 -37 -38 39 -40 1 3 4 7 9 19 21 23 24 25 0
27 -28 29 30 31 32 -33 34 -35 36 -37 -38 39 -40 2 3 4 7 8 9 19 21 23 25 0
-27 -28 29 30 31 32 -33 34 -35 36 -37 -38 39 -40 2 4 7 9 19 21 23 25 0
27 28 29 30 31 32 33 34 -35 -36 -37 -38 39 -40 1 4 5 6 8 9 20 23 24 25 0
27 28 29 30 31 32 33 34 -35 -36 -37 -38 39 -40 3 4 5 8 9 14 20 23 24 25 0
27 28 29 30 31 32 33 34 -35 -36 -37 -38 39 -40 4 5 6 8 9 14 20 23 24 25 0
27 -28 29 30 31 32 33 34 -35 -36 -37 -38 39 -40 2 4 5 6 8 9 20 23 25 0
27 28 29 30 31 -32 33 34 -35 -36 -37 -38 39 -40 1 2 4 6 8 20 23 24 25 0
27 28 29 30 31 -32 33 34 -35 -36 -37 -38 39 -40 2 3 4 8 14 20 23 24 25 0
27 28 29 30 31 -32 33 34 -35 -36 -37 -38 39 -40 2 4 6 8 14 20 23 24 25 0
27 -28 29 30 31 -32 33 34 -35 -36 -37 -38 39 -40 2 4 6 8 20 23 25 0
27 28 29 30 31 32 -33 34 -35 -36 -37 -38 39 -40 1 3 4 5 7 8 9 23 24 25 0
27 -28 29 30 31 32 -33 34 -35 -36 -37 -38 39 -40 2 3 4 5 7 8 9 23 25 0
27 28 29 30 31 -32 -33 34 -35 -36 -37 -38 39 -40 1 2 3 4 7 8 23 24 25 0
27 -28 29 30 31 -32 -33 34 -35 -36 -37 -38 39 -40 2 3 4 7 8 23 25 0
27 28 29 30 31 32 -33 -34 -35 -36 -37 -38 39 -40 1 3 4 5 9 23 24 25 0
-27 -28 29 30 31 32 -33 -34 -35 -36 -37 -38 39 -40 2 4 5 9 23 25 0
27 28 29 30 31 -32 -33 -34 -35 -36 -37 -38 39 -40 1 2 3 4 23 24 25 0
-27 -28 29 30 31 -32 -33 -34 -35 -36 -37 -38 39 -40 2 4 23 25 0
27 28 29 30 31 32 33 34 35 36 37 38 -39 -40 1 2 3 4 5 6 7 8 9 10 11 12 13 18 21 0
27 28 29 30 31 32 33 34 35 36 37 38 -39 -40 1 2 3 4 5 6 7 8 10 11 12 13 21 22 24 0
27 28 29 30 31 32 33 34 35 36 37 38 -39 -40 1 2 3 4 5 6 7 8 10 12 13 18 21 22 0
27 28 29 30 31 32 33 34 35 36 37 38 -39 -40 1 2 3 4 5 6 7 9 10 11 12 13 18 19 21 0
27 28 29 30 31 32 33 34 35 36 37 38 -39 -40 1 2 3 4 5 6 7 10 11 12 13 19 21 22 24 0
27 28 29 30 31 32 33 34 35 36 37 38 -39 -40 1 2 3 4 5 6 7 10 12 13 18 19 21 22 0
27 28 29 30 31 32 33 34 35 36 37 38 -39 -40 1 2 3 4 5 6 8 9 10 11 12 13 18 20 21 0
27 28 29 30 31 32 33 34 35 36 37 38 -39 -40 1 2 3 4 5 6 8 10 11 12 13 20 21 22 24 0
27 28 29 30 31 32 33 34 35 36 37 38 -39 -40 1 2 3 4 5 6 8 10 12 13 18 20 21 22 0
27 28 29 30 31 32 33 34 35 36 37 38 -39 -40 1 2 3 4 5 6 9 10 11 12 13 18 19 20 21 0
27 28 29 30 31 32 33 34 35 36 37 38 -39 -40 1 2 3 4 5 6 10 11 12 13 19 20 21 22 24 0
27 28 29 30 31 32 33 34 35 36 37 38 -39 -40 1 2 3 4 5 6 10 12 13 18 19 20 21 22 0
27 28 29 30 31 32 33 34 35 36 37 38 -39 -40 1 2 3 4 5 7 9 10 11 12 13 14 18 19 21 0
27 28 29 30 31 32 33 34 35 36 37 38 -39 -40 1 2 3 4 5 7 10 11 12 13 14 19 21 22 24 0
27 28 29 30 31 32 33 34 35 36 37 38 -39 -40 1 2 3 4 5 7 10 12 13 14 18 19 21 22 0
27 28 29 30 31 32 33 34 35 36 37 38 -39 -40 1 2 3 4 5 9 10 11 12 13 14 18 19 20 21 0
27 28 29 30 31 32 33 34 35 36 37 38 -39 -40 1 2 3 4 5 10 11 12 13 14 19 20 21 22 24 0
27 28 29 30 31 32 33 34 35 36 37 38 -39 -40 1 2 3 4 5 10 12 13 14 18 19 20 21 22 0
27 28 29 30 31 32 33 34 35 36 37 38 -39 -40 1 3 4 5 6 7 8 9 10 11 12 13 21 24 0
27 28 29 30 31 32 33 34 35 36 37 38 -39 -40 1 3 4 5 6 7 8 9 10 12 13 18 21 22 24 0
27 28 29 30 31 32 33 34 35 36 37 38 -39 -40 1 3 4 5 6 7 9 10 11 12 13 19 21 24 0
27 28 29 30 31 32 33 34 35 36 37 38 -39 -40 1 3 4 5 6 7 9 10 12 13 18 19 21 22 24 0
27 28 29 30 31 32 33 34 35 36 37 38 -39 -40 1 3 4 5 6 8 9 10 11 12 13 20 21 24 0
27 28 29 30 31 32 33 34 35 36 37 38 -39 -40 1 3 4 5 6 8 9 10 12 13 18 20 21 22 24 0
27 28 29 30 31 32 33 34 35 36 37 38 -39 -40 1 3 4 5 6 9 10 11 12 13 19 20 21 24 0
27 28 29 30 31 32 33 34 35 36 37 38 -39 -40 1 3 4 5 6 9 10 12 13 18 19 20 21 22 24 0
27 28 29 30 31 32 33 34 35 36 37 38 -39 -40 1 3 4 5 7 9 10 11 12 13 14 19 21 24 0
27 28 29 30 31 32 33 34 35 36 37 38 -39 -40 1 3 4 5 7 9 10 12 13 14 18 19 21 22 24 0
27 28 29 30 31 32 33 34 35 36 37 38 -39 -40 1 3 4 5 9 10 11 12 13 14 19 20 21 24 0
27 28 29 30 31 32 33 34 35 36 37 38 -39 -40 1 3 4 5 9 10 12 13 14 18 19 20 21 22 24 0
27 28 29 30 31 32 33 34 35 36 37 38 -39 -40 2 3 4 5 7 8 9 10 11 12 13 14 18 21 0
27 28 29 30 31 32 33 34 35 36 37 38 -39 -40 2 3 4 5 7 8 10 11 12 13 14 21 22 24 0
27 28 29 30 31 32 33 34 35 36 37 38 -39 -40 2 3 4 5 7 8 10 12 13 14 18 21 22 0
27 28 29 30 31 32 33 34 35 36 37 38 -39 -40 2 3 4 5 8 9 10 11 12 13 14 18 20 21 0
27 28 29 30 31 32 33 34 35 36 37 38 -39 -40 2 3 4 5 8 10 11 12 13 14 20 21 22 24 0
27 28 29 30 31 32 33 34 35 36 37 38 -39 -40 2 3 4 5 8 10 12 13 14 18 20 21 22 0
27 28 29 30 31 32 33 34 35 36 37 38 -39 -40 3 4 5 7 8 9 10 11 12 13 14 21 24 0
27 28 29 30 31 32 33 34 35 36 37 38 -39 -40 3 4 5 7 8 9 10 12 13 14 18 21 22 24 0
27 28 29 30 31 32 33 34 35 36 37 38 -39 -40 3 4 5 8 9 10 11 12 13 14 20 21 24 0
27 28 29 30 31 32 33 34 35 36 37 38 -39 -40 3 4 5 8 9 10 12 13 14 18 20 21 22 24 0
27 -28 29 30 31 32 33 34 35 36 37 38 -39 -40 2 3 4 5 6 7 8 9 10 11 12 13 21 0
27 -28 29 30 31 32 33 34 35 36 37 38 -39 -40 2 3 4 5 6 7 8 10 11 12 13 21 22 0
27 -28 29 30 31 32 33 34 35 36 37 38 -39 -40 2 3 4 5 6 8 9 10 11 12 13 20 21 0
27 -28 29 30 31 32 33 34 35 36 37 38 -39 -40 2 3 4 5 6 8 10 11 12 13 20 21 22 0
27 28 29 -30 31 32 33 34 35 36 37 38 -39 -40 1 4 5 6 7 8 9 10 11 12 13 18 21 0
27 28 29 -30 31 32 33 34 35 36 37 38 -39 -40 1 4 5 6 7 8 9 10 12 13 18 21 22 0
27 28 29 -30 31 32 33 34 35 36 37 38 -39 -40 1 4 5 6 7 9 10 11 12 13 18 19 21 0
27 28 29 -30 31 32 33 34 35 36 37 38 -39 -40 1 4 5 6 7 9 10 12 13 18 19 21 22 0
27 28 29 -30 31 32 33 34 35 36 37 38 -39 -40 1 4 5 6 8 9 10 11 12 13 18 20 21 0
27 28 29 -30 31 32 33 34 35 36 37 38 -39 -40 1 4 5 6 8 9 10 12 13 18 20 21 22 0
27 28 29 -30 31 32 33 34 35 36 37 38 -39 -40 1 4 5 6 9 10 11 12 13 18 19 20 21 0
27 28 29 -30 31 32 33 34 35 36 37 38 -39 -40 1 4 5 6 9 10 12 13 18 19 20 21 22 0
27 28 29 -30 31 32 33 34 35 36 37 38 -39 -40 4 5 6 7 8 9 10 11 12 13 14 18 21 0
27 28 29 -30 31 32 33 34 35 36 37 38 -39 -40 4 5 6 7 8 9 10 12 13 14 18 21 22 0
27 28 29 -30 31 32 33 34 35 36 37 38 -39 -40 4 5 6 8 9 10 11 12 13 14 18 20 21 0
27 28 29 -30 31 32 33 34 35 36 37 38 -39 -40 4 5 6 8 9 10 12 13 14 18 20 21 22 0
-27 28 29 -30 31 32 33 34 35 36 37 38 -39 -40 4 5 7 9 10 11 12 13 14 18 19 21 0
-27 28 29 -30 31 32 33 34 35 36 37 38 -39 -40 4 5 7 9 10 12 13 14 18 19 21 22 0
-27 28 29 -30 31 32 33 34 35 36 37 38 -39 -40 4 5 9 10 11 12 13 14 18 19 20 21 0
-27 28 29 -30 31 32 33 34 35 36 37 38 -39 -40 4 5 9 10 12 13 14 18 19 20 21 22 0
27 -28 29 -30 31 32 33 34 35 36 37 38 -39 -40 4 5 6 7 8 9 10 11 12 13 21 0
27 -28 29 -30 31 32 33 34 35 36 37 38 -39 -40 4 5 6 8 9 10 11 12 13 20 21 0
27 28 29 30 -31 32 33 34 35 36 37 38 -39 -40 1 2 3 6 7 8 9 10 11 12 13 18 21 0
27 28 29 30 -31 32 33 34 35 36 37 38 -39 -40 1 2 3 6 7 8 10 11 12 13 21 22 24 0
27 28 29 30 -31 32 33 34 35 36 37 38 -39 -40 1 2 3 6 7 8 10 12 13 18 21 22 0
27 28 29 30 -31 32 33 34 35 36 37 38 -39 -40 1 2 3 6 7 9 10 11 12 13 18 19 21 0
27 28 29 30 -31 32 33 34 35 36 37 38 -39 -40 1 2 3 6 7 10 11 12 13 19 21 22 24 0
27 28 29 30 -31 32 33 34 35 36 37 38 -39 -40 1 2 3 6 7 10 12 13 18 19 21 22 0
27 28 29 30 -31 32 33 34 35 36 37 38 -39 -40 1 2 3 7 9 10 11 12 13 14 18 19 21 0
27 28 29 30 -31 32 33 34 35 36 37 38 -39 -40 1 2 3 7 10 11 12 13 14 19 21 22 24 0
27 28 29 30 -31 32 33 34 35 36 37 38 -39 -40 1 2 3 7 10 12 13 14 18 19 21 22 0
27 28 29 30 -31 32 33 34 35 36 37 38 -39 -40 1 3 6 7 8 9 10 11 12 13 21 24 0
27 28 29 30 -31 32 33 34 35 36 37 38 -39 -40 1 3 6 7 8 9 10 12 13 18 21 22 24 0
27 28 29 30 -31 32 33 34 35 36 37 38 -39 -40 1 3 6 7 9 10 11 12 13 19 21 24 0
27 28 29 30 -31 32 33 34 35 36 37 38 -39 -40 1 3 6 7 9 10 12 13 18 19 21 22 24 0
27 28 29 30 -31 32 33 34 35 36 37 38 -39 -40 1 3 7 9 10 11 12 13 14 19 21 24 0
27 28 29 30 -31 32 33 34 35 36 37 38 -39 -40 1 3 7 9 10 12 13 14 18 19 21 22 24 0
27 28 29 30 -31 32 33 34 35 36 37 38 -39 -40 2 3 7 8 9 10 11 12 13 14 18 21 0
27 28 29 30 -31 32 33 34 35 36 37 38 -39 -40 2 3 7 8 10 11 12 13 14 21 22 24 0
27 28 29 30 -31 32 33 34 35 36 37 38 -39 -40 2 3 7 8 10 12 13 14 18 21 22 0
27 28 29 30 -31 32 33 34 35 36 37 38 -39 -40 3 7 8 9 10 11 12 13 14 21 24 0
27 28 29 30 -31 32 33 34 35 36 37 38 -39 -40 3 7 8 9 10 12 13 14 18 21 22 24 0
27 -28 29 30 -31 32 33 34 35 36 37 38 -39 -40 2 3 6 7 8 9 10 11 12 13 21 0
27 -28 29 30 -31 32 33 34 35 36 37 38 -39 -40 2 3 6 7 8 10 11 12 13 21 22 0
27 28 -29 30 -31 32 33 34 35 36 37 38 -39 -40 1 3 6 8 10 11 12 13 20 21 22 24 0
27 28 -29 30 -31 32 33 34 35 36 37 38 -39 -40 1 3 6 8 10 12 13 18 20 21 22 24 0
27 28 -29 30 -31 32 33 34 35 36 37 38 -39 -40 1 3 6 10 11 12 13 19 20 21 22 24 0
27 28 -29 30 -31 32 33 34 35 36 37 38 -39 -40 1 3 6 10 12 13 18 19 20 21 22 24 0
27 28 -29 30 -31 32 33 34 35 36 37 38 -39 -40 1 3 10 11 12 13 14 19 20 21 22 24 0
27 28 -29 30 -31 32 33 34 35 36 37 38 -39 -40 1 3 10 12 13 14 18 19 20 21 22 24 0
27 28 -29 30 -31 32 33 34 35 36 37 38 -39 -40 3 8 10 11 12 13 14 20 21 22 24 0
27 28 -29 30 -31 32 33 34 35 36 37 38 -39 -40 3 8 10 12 13 14 18 20 21 22 24 0
27 28 29 -30 -31 32 33 34 35 36 37 38 -39 -40 1 6 7 8 9 10 11 12 13 18 21 0
27 28 29 -30 -31 32 33 34 35 36 37 38 -39 -40 1 6 7 8 9 10 12 13 18 21 22 0
27 28 29 -30 -31 32 33 34 35 36 37 38 -39 -40 1 6 7 9 10 11 12 13 18 19 21 0
27 28 29 -30 -31 32 33 34 35 36 37 38 -39 -40 1 6 7 9 10 12 13 18 19 21 22 0
27 28 29 -30 -31 32 33 34 35 36 37 38 -39 -40 6 7 8 9 10 11 12 13 14 18 21 0
27 28 29 -30 -31 32 33 34 35 36 37 38 -39 -40 6 7 8 9 10 12 13 14 18 21 22 0
-27 28 29 -30 -31 32 33 34 35 36 37 38 -39 -40 7 9 10 11 12 13 14 18 19 21 0
-27 28 29 -30 -31 32 33 34 35 36 37 38 -39 -40 7 9 10 12 13 14 18 19 21 22 0
27 -28 29 -30 -31 32 33 34 35 36 37 38 -39 -40 6 7 8 9 10 11 12 13 21 0
27 28 -29 -30 -31 32 33 34 35 36 37 38 -39 -40 1 6 8 10 12 13 18 20 21 22 0
27 28 -29 -30 -31 32 33 34 35 36 37 38 -39 -40 1 6 10 12 13 18 19 20 21 22 0
27 28 -29 -30 -31 32 33 34 35 36 37 38 -39 -40 6 8 10 12 13 14 18 20 21 22 0
-27 28 -29 -30 -31 32 33 34 35 36 37 38 -39 -40 10 12 13 14 18 19 20 21 22 0
27 -28 -29 -30 -31 32 33 34 35 36 37 38 -39 -40 6 8 10 11 12 13 20 21 22 0
27 28 29 30 31 32 33 -34 35 36 37 38 -39 -40 1 2 3 4 5 6 9 10 11 12 13 18 21 0
27 28 29 30 31 32 33 -34 35 36 37 38 -39 -40 1 2 3 4 5 6 10 11 12 13 21 22 24 0
27 28 29 30 31 32 33 -34 35 36 37 38 -39 -40 1 2 3 4 5 6 10 12 13 18 21 22 0
27 28 29 30 31 32 33 -34 35 36 37 38 -39 -40 1 2 3 4 5 9 10 11 12 13 14 18 21 0
27 28 29 30 31 32 33 -34 35 36 37 38 -39 -40 1 2 3 4 5 10 11 12 13 14 21 22 24 0
27 28 29 30 31 32 33 -34 35 36 37 38 -39 -40 1 2 3 4 5 10 12 13 14 18 21 22 0
27 28 29 30 31 32 33 -34 35 36 37 38 -39 -40 1 3 4 5 6 9 10 11 12 13 21 24 0
27 28 29 30 31 32 33 -34 35 36 37 38 -39 -40 1 3 4 5 6 9 10 12 13 18 21 22 24 0
27 28 29 30 31 32 33 -34 35 36 37 38 -39 -40 1 3 4 5 9 10 11 12 13 14 21 24 0
27 28 29 30 31 32 33 -34 35 36 37 38 -39 -40 1 3 4 5 9 10 12 13 14 18 21 22 24 0
27 28 29 -30 31 32 33 -34 35 36 37 38 -39 -40 1 4 5 6 9 10 11 12 13 18 21 0
27 28 29 -30 31 32 33 -34 35 36 37 38 -39 -40 1 4 5 6 9 10 12 13 18 21 22 0
-27 28 29 -30 31 32 33 -34 35 36 37 38 -39 -40 4 5 9 10 11 12 13 14 18 21 0
-27 28 29 -30 31 32 33 -34 35 36 37 38 -39 -40 4 5 9 10 12 13 14 18 21 22 0
27 28 -29 30 -31 32 33 -34 35 36 37 38 -39 -40 1 3 6 10 11 12 13 21 22 24 0
27 28 -29 30 -31 32 33 -34 35 36 37 38 -39 -40 1 3 6 10 12 13 18 21 22 24 0
27 28 -29 30 -31 32 33 -34 35 36 37 38 -39 -40 1 3 10 11 12 13 14 21 22 24 0
27 28 -29 30 -31 32 33 -34 35 36 37 38 -39 -40 1 3 10 12 13 14 18 21 22 24 0
27 28 -29 -30 -31 32 33 -34 35 36 37 38 -39 -40 1 6 10 12 13 18 21 22 0
-27 28 -29 -30 -31 32 33 -34 35 36 37 38 -39 -40 10 12 13 14 18 21 22 0
27 28 29 30 31 32 33 34 35 36 -37 38 -39 -40 1 2 3 4 5 6 8 10 12 20 21 22 24 0
27 28 29 30 31 32 33 34 35 36 -37 38 -39 -40 1 2 3 4 5 6 10 12 19 20 21 22 24 0
27 28 29 30 31 32 33 34 35 36 -37 38 -39 -40 1 2 3 4 5 10 12 14 19 20 21 22 24 0
27 28 29 30 31 32 33 34 35 36 -37 38 -39 -40 1 3 4 5 6 8 9 10 12 20 21 22 24 0
27 28 29 30 31 32 33 34 35 36 -37 38 -39 -40 1 3 4 5 6 9 10 12 19 20 21 22 24 0
27 28 29 30 31 32 33 34 35 36 -37 38 -39 -40 1 3 4 5 9 10 12 14 19 20 21 22 24 0
27 28 29 30 31 32 33 34 35 36 -37 38 -39 -40 2 3 4 5 8 10 12 14 20 21 22 24 0
27 28 29 30 31 32 33 34 35 36 -37 38 -39 -40 3 4 5 8 9 10 12 14 20 21 22 24 0
27 -28 29 30 31 32 33 34 35 36 -37 38 -39 -40 2 3 4 5 6 8 10 12 20 21 22 0
27 -28 29 -30 31 32 33 34 35 36 -37 38 -39 -40 4 5 6 8 9 10 12 20 21 22 0
27 28 29 30 -31 32 33 34 35 36 -37 38 -39 -40 1 2 3 6 7 8 10 12 20 21 22 24 0
27 28 29 30 -31 32 33 34 35 36 -37 38 -39 -40 1 2 3 6 7 10 12 19 20 21 22 24 0
27 28 29 30 -31 32 33 34 35 36 -37 38 -39 -40 1 2 3 7 10 12 14 19 20 21 22 24 0
27 28 29 30 -31 32 33 34 35 36 -37 38 -39 -40 1 3 6 7 8 9 10 12 20 21 22 24 0
27 28 29 30 -31 32 33 34 35 36 -37 38 -39 -40 1 3 6 7 9 10 12 19 20 21 22 24 0
27 28 29 30 -31 32 33 34 35 36 -37 38 -39 -40 1 3 7 9 10 12 14 19 20 21 22 24 0
27 28 29 30 -31 32 33 34 35 36 -37 38 -39 -40 2 3 7 8 10 12 14 20 21 22 24 0
27 28 29 30 -31 32 33 34 35 36 -37 38 -39 -40 3 7 8 9 10 12 14 20 21 22 24 0
27 -28 29 30 -31 32 33 34 35 36 -37 38 -39 -40 2 3 6 7 8 10 12 20 21 22 0
27 28 -29 30 -31 32 33 34 35 36 -37 38 -39 -40 1 3 6 8 10 12 20 21 22 24 0
27 28 -29 30 -31 32 33 34 35 36 -37 38 -39 -40 1 3 6 10 12 19 20 21 22 24 0
27 28 -29 30 -31 32 33 34 35 36 -37 38 -39 -40 1 3 10 12 14 19 20 21 22 24 0
27 28 -29 30 -31 32 33 34 35 36 -37 38 -39 -40 3 8 10 12 14 20 21 22 24 0
27 -28 29 -30 -31 32 33 34 35 36 -37 38 -39 -40 6 7 8 9 10 12 20 21 22 0
27 -28 -29 -30 -31 32 33 34 35 36 -37 38 -39 -40 6 8 10 12 20 21 22 0
27 28 29 30 31 32 -33 34 35 36 -37 38 -39 -40 1 2 3 4 5 7 8 10 12 21 22 24 0
27 28 29 30 31 32 -33 34 35 36 -37 38 -39 -40 1 2 3 4 5 7 10 12 19 21 22 24 0
27 28 29 30 31 32 -33 34 35 36 -37 38 -39 -40 1 3 4 5 7 8 9 10 12 21 22 24 0
27 28 29 30 31 32 -33 34 35 36 -37 38 -39 -40 1 3 4 5 7 9 10 12 19 21 22 24 0
27 -28 29 30 31 32 -33 34 35 36 -37 38 -39 -40 2 3 4 5 7 8 10 12 21 22 0
-27 -28 29 -30 31 32 -33 34 35 36 -37 38 -39 -40 4 5 7 9 10 12 19 21 22 0
27 28 29 30 -31 32 -33 34 35 36 -37 38 -39 -40 1 2 3 7 8 10 12 21 22 24 0
27 28 29 30 -31 32 -33 34 35 36 -37 38 -39 -40 1 2 3 7 10 12 19 21 22 24 0
27 28 29 30 -31 32 -33 34 35 36 -37 38 -39 -40 1 3 7 8 9 10 12 21 22 24 0
27 28 29 30 -31 32 -33 34 35 36 -37 38 -39 -40 1 3 7 9 10 12 19 21 22 24 0
27 -28 29 30 -31 32 -33 34 35 36 -37 38 -39 -40 2 3 7 8 10 12 21 22 0
-27 -28 29 -30 -31 32 -33 34 35 36 -37 38 -39 -40 7 9 10 12 19 21 22 0
27 28 29 30 31 32 -33 -34 35 36 -37 38 -39 -40 1 2 3 4 5 10 12 21 22 24 0
27 28 29 30 31 32 -33 -34 35 36 -37 38 -39 -40 1 3 4 5 9 10 12 21 22 24 0
-27 -28 29 -30 31 32 -33 -34 35 36 -37 38 -39 -40 4 5 9 10 12 21 22 0
27 28 -29 30 -31 32 -33 -34 35 36 -37 38 -39 -40 1 3 10 12 21 22 24 0
-27 -28 -29 -30 -31 32 -33 -34 35 36 -37 38 -39 -40 10 12 21 22 0
27 28 29 30 31 32 33 34 -35 36 37 -38 -39 -40 1 2 3 4 5 6 7 9 13 18 19 21 0
27 28 29 30 31 32 33 34 -35 36 37 -38 -39 -40 1 2 3 4 5 6 9 13 18 19 20 21 0
27 28 29 30 31 32 33 34 -35 36 37 -38 -39 -40 1 2 3 4 5 7 9 13 14 18 19 21 0
27 28 29 30 31 32 33 34 -35 36 37 -38 -39 -40 1 2 3 4 5 9 13 14 18 19 20 21 0
27 28 29 30 31 32 33 34 -35 36 37 -38 -39 -40 1 3 4 5 6 7 9 13 18 19 21 24 0
27 28 29 30 31 32 33 34 -35 36 37 -38 -39 -40 1 3 4 5 6 9 13 18 19 20 21 24 0
27 28 29 30 31 32 33 34 -35 36 37 -38 -39 -40 1 3 4 5 7 9 13 14 18 19 21 24 0
27 28 29 30 31 32 33 34 -35 36 37 -38 -39 -40 1 3 4 5 9 13 14 18 19 20 21 24 0
27 28 29 30 31 32 33 34 -35 36 37 -38 -39 -40 2 3 4 5 7 8 9 13 14 18 19 21 0
27 28 29 30 31 32 33 34 -35 36 37 -38 -39 -40 2 3 4 5 8 9 13 14 18 19 20 21 0
27 28 29 30 31 32 33 34 -35 36 37 -38 -39 -40 3 4 5 7 8 9 13 14 18 19 21 24 0
27 28 29 30 31 32 33 34 -35 36 37 -38 -39 -40 3 4 5 8 9 13 14 18 19 20 21 24 0
27 28 29 -30 31 32 33 34 -35 36 37 -38 -39 -40 1 4 5 6 7 9 13 18 19 21 0
27 28 29 -30 31 32 33 34 -35 36 37 -38 -39 -40 1 4 5 6 9 13 18 19 20 21 0
27 28 29 -30 31 32 33 34 -35 36 37 -38 -39 -40 4 5 6 7 8 9 13 14 18 19 21 0
27 28 29 -30 31 32 33 34 -35 36 37 -38 -39 -40 4 5 6 8 9 13 14 18 19 20 21 0
-27 28 29 -30 31 32 33 34 -35 36 37 -38 -39 -40 4 5 7 9 13 14 18 19 21 0
-27 28 29 -30 31 32 33 34 -35 36 37 -38 -39 -40 4 5 9 13 14 18 19 20 21 0
27 28 29 30 -31 32 33 34 -35 36 37 -38 -39 -40 1 2 3 6 7 9 13 18 19 21 0
27 28 29 30 -31 32 33 34 -35 36 37 -38 -39 -40 1 2 3 7 9 13 14 18 19 21 0
27 28 29 30 -31 32 33 34 -35 36 37 -38 -39 -40 1 3 6 7 9 13 18 19 21 24 0
27 28 29 30 -31 32 33 34 -35 36 37 -38 -39 -40 1 3 7 9 13 14 18 19 21 24 0
27 28 29 30 -31 32 33 34 -35 36 37 -38 -39 -40 2 3 7 8 9 13 14 18 19 21 0
27 28 29 30 -31 32 33 34 -35 36 37 -38 -39 -40 3 7 8 9 13 14 18 19 21 24 0
27 28 29 -30 -31 32 33 34 -35 36 37 -38 -39 -40 1 6 7 9 13 18 19 21 0
27 28 29 -30 -31 32 33 34 -35 36 37 -38 -39 -40 6 7 8 9 13 14 18 19 21 0
-27 28 29 -30 -31 32 33 34 -35 36 37 -38 -39 -40 7 9 13 14 18 19 21 0
27 28 29 30 31 32 33 34 -35 -36 37 -38 -39 -40 1 2 3 4 5 6 7 8 9 13 18 0
27 28 29 30 31 32 33 34 -35 -36 37 -38 -39 -40 1 2 3 4 5 6 8 9 13 18 20 0
27 28 29 30 31 32 33 34 -35 -36 37 -38 -39 -40 1 3 4 5 6 7 8 9 13 18 24 0
27 28 29 30 31 32 33 34 -35 -36 37 -38 -39 -40 1 3 4 5 6 8 9 13 18 20 24 0
27 28 29 30 31 32 33 34 -35 -36 37 -38 -39 -40 2 3 4 5 7 8 9 13 14 18 0
27 28 29 30 31 32 33 34 -35 -36 37 -38 -39 -40 2 3 4 5 8 9 13 14 18 20 0
27 28 29 30 31 32 33 34 -35 -36 37 -38 -39 -40 3 4 5 7 8 9 13 14 18 24 0
27 28 29 30 31 32 33 34 -35 -36 37 -38 -39 -40 3 4 5 8 9 13 14 18 20 24 0
27 28 29 -30 31 32 33 34 -35 -36 37 -38 -39 -40 1 4 5 6 7 8 9 13 18 0
27 28 29 -30 31 32 33 34 -35 -36 37 -38 -39 -40 1 4 5 6 8 9 13 18 20 0
27 28 29 -30 31 32 33 34 -35 -36 37 -38 -39 -40 4 5 6 7 8 9 13 14 18 0
27 28 29 -30 31 32 33 34 -35 -36 37 -38 -39 -40 4 5 6 8 9 13 14 18 20 0
27 28 29 30 -31 -32 33 34 -35 -36 37 -38 -39 -40 1 2 3 6 7 8 13 18 0
27 28 29 30 -31 -32 33 34 -35 -36 37 -38 -39 -40 2 3 7 8 13 14 18 0
27 28 -29 30 -31 -32 33 34 -35 -36 37 -38 -39 -40 1 3 6 8 13 18 20 24 0
27 28 -29 30 -31 -32 33 34 -35 -36 37 -38 -39 -40 3 8 13 14 18 20 24 0
27 28 -29 -30 -31 -32 33 34 -35 -36 37 -38 -39 -40 1 6 8 13 18 20 0
27 28 -29 -30 -31 -32 33 34 -35 -36 37 -38 -39 -40 6 8 13 14 18 20 0
27 28 29 30 31 32 33 -34 -35 -36 37 -38 -39 -40 1 2 3 4 5 6 9 13 18 0
27 28 29 30 31 32 33 -34 -35 -36 37 -38 -39 -40 1 2 3 4 5 9 13 14 18 0
27 28 29 30 31 32 33 -34 -35 -36 37 -38 -39 -40 1 3 4 5 6 9 13 18 24 0
27 28 29 30 31 32 33 -34 -35 -36 37 -38 -39 -40 1 3 4 5 9 13 14 18 24 0
27 28 29 -30 31 32 33 -34 -35 -36 37 -38 -39 -40 1 4 5 6 9 13 18 0
-27 28 29 -30 31 32 33 -34 -35 -36 37 -38 -39 -40 4 5 9 13 14 18 0
27 28 -29 30 -31 -32 33 -34 -35 -36 37 -38 -39 -40 1 3 6 13 18 24 0
27 28 -29 30 -31 -32 33 -34 -35 -36 37 -38 -39 -40 1 3 13 14 18 24 0
27 28 -29 -30 -31 -32 33 -34 -35 -36 37 -38 -39 -40 1 6 13 18 0
-27 28 -29 -30 -31 -32 33 -34 -35 -36 37 -38 -39 -40 13 14 18 0
27 28 29 30 31 32 33 34 -35 36 -37 -38 -39 -40 1 3 4 5 6 9 19 20 21 24 0
27 28 29 30 31 32 33 34 -35 36 -37 -38 -39 -40 1 3 4 5 9 14 19 20 21 24 0
27 28 29 30 31 32 33 34 -35 36 -37 -38 -39 -40 3 4 5 8 9 14 19 20 21 24 0
27 -28 29 30 31 32 33 34 -35 36 -37 -38 -39 -40 2 3 4 5 6 8 9 19 20 21 0
27 -28 29 -30 31 32 33 34 -35 36 -37 -38 -39 -40 4 5 6 8 9 19 20 21 0
27 28 29 30 -31 32 33 34 -35 36 -37 -38 -39 -40 1 3 6 7 9 19 20 21 24 0
27 28 29 30 -31 32 33 34 -35 36 -37 -38 -39 -40 1 3 7 9 14 19 20 21 24 0
27 28 29 30 -31 32 33 34 -35 36 -37 -38 -39 -40 3 7 8 9 14 19 20 21 24 0
27 -28 29 30 -31 32 33 34 -35 36 -37 -38 -39 -40 2 3 6 7 8 9 19 20 21 0
27 -28 29 -30 -31 32 33 34 -35 36 -37 -38 -39 -40 6 7 8 9 19 20 21 0
27 28 29 30 31 32 -33 34 -35 36 -37 -38 -39 -40 1 3 4 5 7 9 19 21 24 0
27 -28 29 30 31 32 -33 34 -35 36 -37 -38 -39 -40 2 3 4 5 7 8 9 19 21 0
-27 -28 29 -30 31 32 -33 34 -35 36 -37 -38 -39 -40 4 5 7 9 19 21 0
27 28 29 30 -31 32 -33 34 -35 36 -37 -38 -39 -40 1 3 7 9 19 21 24 0
27 -28 29 30 -31 32 -33 34 -35 36 -37 -38 -39 -40 2 3 7 8 9 19 21 0
-27 -28 29 -30 -31 32 -33 34 -35 36 -37 -38 -39 -40 7 9 19 21 0
27 28 29 30 31 32 33 34 -35 -36 -37 -38 -39 -40 1 3 4 5 6 8 9 20 24 0
27 28 29 30 31 32 33 34 -35 -36 -37 -38 -39 -40 3 4 5 8 9 14 20 24 0
27 -28 29 30 31 32 33 34 -35 -36 -37 -38 -39 -40 2 3 4 5 6 8 9 20 0
27 -28 29 -30 31 32 33 34 -35 -36 -37 -38 -39 -40 4 5 6 8 9 20 0
27 28 29 30 -31 -32 33 34 -35 -36 -37 -38 -39 -40 1 2 3 6 7 8 20 24 0
27 28 29 30 -31 -32 33 34 -35 -36 -37 -38 -39 -40 2 3 7 8 14 20 24 0
27 -28 29 30 -31 -32 33 34 -35 -36 -37 -38 -39 -40 2 3 6 7 8 20 0
27 28 -29 30 -31 -32 33 34 -35 -36 -37 -38 -39 -40 1 3 6 8 20 24 0
27 28 -29 30 -31 -32 33 34 -35 -36 -37 -38 -39 -40 3 8 14 20 24 0
27 -28 -29 -30 -31 -32 33 34 -35 -36 -37 -38 -39 -40 6 8 20 0
27 28 29 30 31 32 -33 34 -35 -36 -37 -38 -39 -40 1 3 4 5 7 8 9 24 0
27 -28 29 30 31 32 -33 34 -35 -36 -37 -38 -39 -40 2 3 4 5 7 8 9 0
27 28 29 30 -31 -32 -33 34 -35 -36 -37 -38 -39 -40 1 2 3 7 8 24 0
27 -28 29 30 -31 -32 -33 34 -35 -36 -37 -38 -39 -40 2 3 7 8 0
27 28 29 30 31 32 -33 -34 -35 -36 -37 -38 -39 -40 1 3 4 5 9 24 0
-27 -28 29 -30 31 32 -33 -34 -35 -36 -37 -38 -39 -40 4 5 9 0
27 28 -29 30 -31 -32 -33 -34 -35 -36 -37 -38 -39 -40 1 3 24 0
-27 -28 -29 -30 -31 -32 -33 -34 -35 -36 -37 -38 -39 -40 0
