p cnf 3140 15064
80 0
-81 23 0
-81 46 0
-81 50 0
81 -23 -46 -50 0
-82 23 0
-82 38 0
-82 53 0
82 -23 -38 -53 0
-83 23 0
-83 30 0
-83 64 0
83 -23 -30 -64 0
-84 15 0
-84 48 0
-84 50 0
84 -15 -48 -50 0
-85 15 0
-85 38 0
-85 56 0
85 -15 -38 -56 0
-86 15 0
-86 30 0
-86 72 0
86 -15 -30 -72 0
-87 12 0
-87 48 0
-87 53 0
87 -12 -48 -53 0
-88 12 0
-88 46 0
-88 56 0
88 -12 -46 -56 0
-89 12 0
-89 30 0
-89 75 0
89 -12 -30 -75 0
-90 9 0
-90 48 0
-90 64 0
90 -9 -48 -64 0
-91 9 0
-91 46 0
-91 72 0
91 -9 -46 -72 0
-92 9 0
-92 38 0
-92 75 0
92 -9 -38 -75 0
-93 6 0
-93 56 0
-93 64 0
93 -6 -56 -64 0
-94 6 0
-94 53 0
-94 72 0
94 -6 -53 -72 0
-95 6 0
-95 50 0
-95 75 0
95 -6 -50 -75 0
-80 81 82 83 84 85 86 87 88 89 90 91 92 93 94 95 0
-81 80 82 83 84 85 86 87 88 89 90 91 92 93 94 95 0
-82 80 81 83 84 85 86 87 88 89 90 91 92 93 94 95 0
-83 80 81 82 84 85 86 87 88 89 90 91 92 93 94 95 0
-84 80 81 82 83 85 86 87 88 89 90 91 92 93 94 95 0
-85 80 81 82 83 84 86 87 88 89 90 91 92 93 94 95 0
-86 80 81 82 83 84 85 87 88 89 90 91 92 93 94 95 0
-87 80 81 82 83 84 85 86 88 89 90 91 92 93 94 95 0
-88 80 81 82 83 84 85 86 87 89 90 91 92 93 94 95 0
-89 80 81 82 83 84 85 86 87 88 90 91 92 93 94 95 0
-90 80 81 82 83 84 85 86 87 88 89 91 92 93 94 95 0
-91 80 81 82 83 84 85 86 87 88 89 90 92 93 94 95 0
-92 80 81 82 83 84 85 86 87 88 89 90 91 93 94 95 0
-93 80 81 82 83 84 85 86 87 88 89 90 91 92 94 95 0
-94 80 81 82 83 84 85 86 87 88 89 90 91 92 93 95 0
-95 80 81 82 83 84 85 86 87 88 89 90 91 92 93 94 0
-96 46 0
-96 50 0
96 -46 -50 0
-97 38 0
-97 53 0
97 -38 -53 0
-98 30 0
-98 64 0
98 -30 -64 0
-99 15 0
-99 38 0
99 -15 -38 0
-100 12 0
-100 46 0
100 -12 -46 0
-101 6 0
-101 64 0
101 -6 -64 0
-96 97 98 99 100 101 0
-97 96 98 99 100 101 0
-98 96 97 99 100 101 0
-99 96 97 98 100 101 0
-100 96 97 98 99 101 0
-101 96 97 98 99 100 0
-102 24 0
-102 46 0
-102 50 0
102 -24 -46 -50 0
-103 24 0
-103 38 0
-103 53 0
103 -24 -38 -53 0
-104 24 0
-104 30 0
-104 64 0
104 -24 -30 -64 0
-105 15 0
-105 38 0
-105 57 0
105 -15 -38 -57 0
-106 12 0
-106 46 0
-106 57 0
106 -12 -46 -57 0
-107 6 0
-107 57 0
-107 64 0
107 -6 -57 -64 0
-102 103 104 105 106 107 0
-103 102 104 105 106 107 0
-104 102 103 105 106 107 0
-105 102 103 104 106 107 0
-106 102 103 104 105 107 0
-107 102 103 104 105 106 0
-108 48 0
-108 50 0
108 -48 -50 0
-109 38 0
-109 56 0
109 -38 -56 0
-110 30 0
-110 72 0
110 -30 -72 0
-111 23 0
-111 30 0
111 -23 -30 0
-112 9 0
-112 48 0
112 -9 -48 0
-113 6 0
-113 56 0
113 -6 -56 0
-108 109 110 111 112 113 0
-109 108 110 111 112 113 0
-110 108 109 111 112 113 0
-111 108 109 110 112 113 0
-112 108 109 110 111 113 0
-113 108 109 110 111 112 0
-114 38 0
114 -38 0
-115 30 0
115 -30 0
-116 12 0
-116 30 0
-116 76 0
116 -12 -30 -76 0
-117 9 0
-117 38 0
-117 76 0
117 -9 -38 -76 0
-118 6 0
118 -6 0
-119 6 0
-119 50 0
-119 76 0
119 -6 -50 -76 0
-114 115 116 117 118 119 0
-115 114 116 117 118 119 0
-116 114 115 117 118 119 0
-117 114 115 116 118 119 0
-118 114 115 116 117 119 0
-119 114 115 116 117 118 0
-120 38 0
-120 57 0
120 -38 -57 0
-121 24 0
-121 30 0
121 -24 -30 0
-122 6 0
-122 57 0
122 -6 -57 0
-120 121 122 0
-121 120 122 0
-122 120 121 0
-123 23 0
-123 30 0
-123 65 0
123 -23 -30 -65 0
-124 16 0
-124 48 0
-124 50 0
124 -16 -48 -50 0
-125 16 0
-125 38 0
-125 56 0
125 -16 -38 -56 0
-126 16 0
-126 30 0
-126 72 0
126 -16 -30 -72 0
-127 9 0
-127 48 0
-127 65 0
127 -9 -48 -65 0
-128 6 0
-128 56 0
-128 65 0
128 -6 -56 -65 0
-123 124 125 126 127 128 0
-124 123 125 126 127 128 0
-125 123 124 126 127 128 0
-126 123 124 125 127 128 0
-127 123 124 125 126 128 0
-128 123 124 125 126 127 0
-129 30 0
-129 65 0
129 -30 -65 0
-130 16 0
-130 38 0
130 -16 -38 0
-131 6 0
-131 65 0
131 -6 -65 0
-129 130 131 0
-130 129 131 0
-131 129 130 0
-132 24 0
-132 30 0
-132 65 0
132 -24 -30 -65 0
-133 16 0
-133 38 0
-133 57 0
133 -16 -38 -57 0
-134 12 0
-134 30 0
-134 77 0
134 -12 -30 -77 0
-135 9 0
-135 38 0
-135 77 0
135 -9 -38 -77 0
-136 6 0
-136 57 0
-136 65 0
136 -6 -57 -65 0
-137 6 0
-137 50 0
-137 77 0
137 -6 -50 -77 0
-132 133 134 135 136 137 0
-133 132 134 135 136 137 0
-134 132 133 135 136 137 0
-135 132 133 134 136 137 0
-136 132 133 134 135 137 0
-137 132 133 134 135 136 0
-138 23 0
-138 53 0
138 -23 -53 0
-139 23 0
-139 30 0
-139 66 0
139 -23 -30 -66 0
-140 15 0
-140 56 0
140 -15 -56 0
-141 9 0
-141 75 0
141 -9 -75 0
-142 9 0
-142 48 0
-142 66 0
142 -9 -48 -66 0
-143 6 0
-143 56 0
-143 66 0
143 -6 -56 -66 0
-138 139 140 141 142 143 0
-139 138 140 141 142 143 0
-140 138 139 141 142 143 0
-141 138 139 140 142 143 0
-142 138 139 140 141 143 0
-143 138 139 140 141 142 0
-144 53 0
144 -53 0
-145 30 0
-145 66 0
145 -30 -66 0
-146 15 0
146 -15 0
-147 15 0
-147 30 0
-147 73 0
147 -15 -30 -73 0
-148 9 0
-148 46 0
-148 73 0
148 -9 -46 -73 0
-149 6 0
-149 66 0
149 -6 -66 0
-150 6 0
-150 53 0
-150 73 0
150 -6 -53 -73 0
-144 145 146 147 148 149 150 0
-145 144 146 147 148 149 150 0
-146 144 145 147 148 149 150 0
-147 144 145 146 148 149 150 0
-148 144 145 146 147 149 150 0
-149 144 145 146 147 148 150 0
-150 144 145 146 147 148 149 0
-151 24 0
-151 53 0
151 -24 -53 0
-152 24 0
-152 30 0
-152 66 0
152 -24 -30 -66 0
-153 15 0
-153 57 0
153 -15 -57 0
-154 6 0
-154 57 0
-154 66 0
154 -6 -57 -66 0
-151 152 153 154 0
-152 151 153 154 0
-153 151 152 154 0
-154 151 152 153 0
-155 56 0
155 -56 0
-156 23 0
-156 30 0
-156 67 0
156 -23 -30 -67 0
-157 9 0
-157 48 0
-157 67 0
157 -9 -48 -67 0
-158 6 0
-158 56 0
-158 67 0
158 -6 -56 -67 0
-155 156 157 158 0
-156 155 157 158 0
-157 155 156 158 0
-158 155 156 157 0
159 0
-160 30 0
-160 73 0
160 -30 -73 0
-161 30 0
-161 67 0
161 -30 -67 0
-162 9 0
-162 76 0
162 -9 -76 0
-163 6 0
-163 67 0
163 -6 -67 0
-159 160 161 162 163 0
-160 159 161 162 163 0
-161 159 160 162 163 0
-162 159 160 161 163 0
-163 159 160 161 162 0
-164 57 0
164 -57 0
-165 24 0
-165 30 0
-165 67 0
165 -24 -30 -67 0
-166 6 0
-166 57 0
-166 67 0
166 -6 -57 -67 0
-164 165 166 0
-165 164 166 0
-166 164 165 0
-167 23 0
-167 30 0
-167 68 0
167 -23 -30 -68 0
-168 16 0
-168 56 0
168 -16 -56 0
-169 9 0
-169 48 0
-169 68 0
169 -9 -48 -68 0
-170 6 0
-170 56 0
-170 68 0
170 -6 -56 -68 0
-167 168 169 170 0
-168 167 169 170 0
-169 167 168 170 0
-170 167 168 169 0
-171 30 0
-171 68 0
171 -30 -68 0
-172 16 0
172 -16 0
-173 16 0
-173 30 0
-173 73 0
173 -16 -30 -73 0
-174 6 0
-174 68 0
174 -6 -68 0
-171 172 173 174 0
-172 171 173 174 0
-173 171 172 174 0
-174 171 172 173 0
-175 24 0
-175 30 0
-175 68 0
175 -24 -30 -68 0
-176 16 0
-176 57 0
176 -16 -57 0
-177 9 0
-177 77 0
177 -9 -77 0
-178 6 0
-178 57 0
-178 68 0
178 -6 -57 -68 0
-175 176 177 178 0
-176 175 177 178 0
-177 175 176 178 0
-178 175 176 177 0
-179 23 0
-179 39 0
-179 53 0
179 -23 -39 -53 0
-180 23 0
-180 30 0
-180 69 0
180 -23 -30 -69 0
-181 15 0
-181 39 0
-181 56 0
181 -15 -39 -56 0
-182 9 0
-182 48 0
-182 69 0
182 -9 -48 -69 0
-183 9 0
-183 39 0
-183 75 0
183 -9 -39 -75 0
-184 6 0
-184 56 0
-184 69 0
184 -6 -56 -69 0
-179 180 181 182 183 184 0
-180 179 181 182 183 184 0
-181 179 180 182 183 184 0
-182 179 180 181 183 184 0
-183 179 180 181 182 184 0
-184 179 180 181 182 183 0
-185 39 0
-185 53 0
185 -39 -53 0
-186 30 0
-186 69 0
186 -30 -69 0
-187 15 0
-187 39 0
187 -15 -39 0
-188 6 0
-188 69 0
188 -6 -69 0
-185 186 187 188 0
-186 185 187 188 0
-187 185 186 188 0
-188 185 186 187 0
-189 24 0
-189 39 0
-189 53 0
189 -24 -39 -53 0
-190 24 0
-190 30 0
-190 69 0
190 -24 -30 -69 0
-191 15 0
-191 39 0
-191 57 0
191 -15 -39 -57 0
-192 15 0
-192 30 0
-192 74 0
192 -15 -30 -74 0
-193 9 0
-193 46 0
-193 74 0
193 -9 -46 -74 0
-194 6 0
-194 57 0
-194 69 0
194 -6 -57 -69 0
-195 6 0
-195 53 0
-195 74 0
195 -6 -53 -74 0
-189 190 191 192 193 194 195 0
-190 189 191 192 193 194 195 0
-191 189 190 192 193 194 195 0
-192 189 190 191 193 194 195 0
-193 189 190 191 192 194 195 0
-194 189 190 191 192 193 195 0
-195 189 190 191 192 193 194 0
-196 39 0
-196 56 0
196 -39 -56 0
-197 23 0
-197 30 0
-197 70 0
197 -23 -30 -70 0
-198 9 0
-198 48 0
-198 70 0
198 -9 -48 -70 0
-199 6 0
-199 56 0
-199 70 0
199 -6 -56 -70 0
-196 197 198 199 0
-197 196 198 199 0
-198 196 197 199 0
-199 196 197 198 0
-200 39 0
200 -39 0
-201 30 0
-201 70 0
201 -30 -70 0
-202 9 0
-202 39 0
-202 76 0
202 -9 -39 -76 0
-203 6 0
-203 70 0
203 -6 -70 0
-200 201 202 203 0
-201 200 202 203 0
-202 200 201 203 0
-203 200 201 202 0
-204 39 0
-204 57 0
204 -39 -57 0
-205 30 0
-205 74 0
205 -30 -74 0
-206 24 0
-206 30 0
-206 70 0
206 -24 -30 -70 0
-207 6 0
-207 57 0
-207 70 0
207 -6 -57 -70 0
-204 205 206 207 0
-205 204 206 207 0
-206 204 205 207 0
-207 204 205 206 0
-208 23 0
-208 30 0
-208 71 0
208 -23 -30 -71 0
-209 16 0
-209 39 0
-209 56 0
209 -16 -39 -56 0
-210 9 0
-210 48 0
-210 71 0
210 -9 -48 -71 0
-211 6 0
-211 56 0
-211 71 0
211 -6 -56 -71 0
-208 209 210 211 0
-209 208 210 211 0
-210 208 209 211 0
-211 208 209 210 0
-212 30 0
-212 71 0
212 -30 -71 0
-213 16 0
-213 39 0
213 -16 -39 0
-214 6 0
-214 71 0
214 -6 -71 0
-212 213 214 0
-213 212 214 0
-214 212 213 0
-215 24 0
-215 30 0
-215 71 0
215 -24 -30 -71 0
-216 16 0
-216 39 0
-216 57 0
216 -16 -39 -57 0
-217 16 0
-217 30 0
-217 74 0
217 -16 -30 -74 0
-218 9 0
-218 39 0
-218 77 0
218 -9 -39 -77 0
-219 6 0
-219 57 0
-219 71 0
219 -6 -57 -71 0
-215 216 217 218 219 0
-216 215 217 218 219 0
-217 215 216 218 219 0
-218 215 216 217 219 0
-219 215 216 217 218 0
-220 23 0
-220 64 0
220 -23 -64 0
-221 15 0
-221 72 0
221 -15 -72 0
-222 15 0
-222 38 0
-222 58 0
222 -15 -38 -58 0
-223 12 0
-223 75 0
223 -12 -75 0
-224 12 0
-224 46 0
-224 58 0
224 -12 -46 -58 0
-225 6 0
-225 58 0
-225 64 0
225 -6 -58 -64 0
-220 221 222 223 224 225 0
-221 220 222 223 224 225 0
-222 220 221 223 224 225 0
-223 220 221 222 224 225 0
-224 220 221 222 223 225 0
-225 220 221 222 223 224 0
-226 64 0
226 -64 0
-227 15 0
-227 38 0
-227 59 0
227 -15 -38 -59 0
-228 12 0
-228 46 0
-228 59 0
228 -12 -46 -59 0
-229 6 0
-229 59 0
-229 64 0
229 -6 -59 -64 0
-226 227 228 229 0
-227 226 228 229 0
-228 226 227 229 0
-229 226 227 228 0
-230 24 0
-230 64 0
230 -24 -64 0
-231 15 0
-231 38 0
-231 60 0
231 -15 -38 -60 0
-232 12 0
-232 46 0
-232 60 0
232 -12 -46 -60 0
-233 6 0
-233 60 0
-233 64 0
233 -6 -60 -64 0
-230 231 232 233 0
-231 230 232 233 0
-232 230 231 233 0
-233 230 231 232 0
-234 72 0
234 -72 0
-235 38 0
-235 58 0
235 -38 -58 0
-236 23 0
236 -23 0
-237 23 0
-237 38 0
-237 54 0
237 -23 -38 -54 0
-238 12 0
-238 48 0
-238 54 0
238 -12 -48 -54 0
-239 6 0
-239 58 0
239 -6 -58 0
-240 6 0
-240 54 0
-240 72 0
240 -6 -54 -72 0
-234 235 236 237 238 239 240 0
-235 234 236 237 238 239 240 0
-236 234 235 237 238 239 240 0
-237 234 235 236 238 239 240 0
-238 234 235 236 237 239 240 0
-239 234 235 236 237 238 240 0
-240 234 235 236 237 238 239 0
241 0
-242 38 0
-242 59 0
242 -38 -59 0
-243 38 0
-243 54 0
243 -38 -54 0
-244 12 0
-244 76 0
244 -12 -76 0
-245 6 0
-245 59 0
245 -6 -59 0
-241 242 243 244 245 0
-242 241 243 244 245 0
-243 241 242 244 245 0
-244 241 242 243 245 0
-245 241 242 243 244 0
-246 38 0
-246 60 0
246 -38 -60 0
-247 24 0
247 -24 0
-248 24 0
-248 38 0
-248 54 0
248 -24 -38 -54 0
-249 6 0
-249 60 0
249 -6 -60 0
-246 247 248 249 0
-247 246 248 249 0
-248 246 247 249 0
-249 246 247 248 0
-250 23 0
-250 65 0
250 -23 -65 0
-251 16 0
-251 72 0
251 -16 -72 0
-252 16 0
-252 38 0
-252 58 0
252 -16 -38 -58 0
-253 6 0
-253 58 0
-253 65 0
253 -6 -58 -65 0
-250 251 252 253 0
-251 250 252 253 0
-252 250 251 253 0
-253 250 251 252 0
-254 65 0
254 -65 0
-255 16 0
-255 38 0
-255 59 0
255 -16 -38 -59 0
-256 6 0
-256 59 0
-256 65 0
256 -6 -59 -65 0
-254 255 256 0
-255 254 256 0
-256 254 255 0
-257 24 0
-257 65 0
257 -24 -65 0
-258 16 0
-258 38 0
-258 60 0
258 -16 -38 -60 0
-259 12 0
-259 77 0
259 -12 -77 0
-260 6 0
-260 60 0
-260 65 0
260 -6 -60 -65 0
-257 258 259 260 0
-258 257 259 260 0
-259 257 258 260 0
-260 257 258 259 0
-261 23 0
-261 66 0
261 -23 -66 0
-262 23 0
-262 46 0
-262 51 0
262 -23 -46 -51 0
-263 15 0
-263 58 0
263 -15 -58 0
-264 15 0
-264 48 0
-264 51 0
264 -15 -48 -51 0
-265 6 0
-265 58 0
-265 66 0
265 -6 -58 -66 0
-266 6 0
-266 51 0
-266 75 0
266 -6 -51 -75 0
-261 262 263 264 265 266 0
-262 261 263 264 265 266 0
-263 261 262 264 265 266 0
-264 261 262 263 265 266 0
-265 261 262 263 264 266 0
-266 261 262 263 264 265 0
-267 66 0
267 -66 0
-268 46 0
-268 51 0
268 -46 -51 0
-269 15 0
-269 73 0
269 -15 -73 0
-270 15 0
-270 59 0
270 -15 -59 0
-271 6 0
-271 59 0
-271 66 0
271 -6 -59 -66 0
-267 268 269 270 271 0
-268 267 269 270 271 0
-269 267 268 270 271 0
-270 267 268 269 271 0
-271 267 268 269 270 0
-272 24 0
-272 66 0
272 -24 -66 0
-273 24 0
-273 46 0
-273 51 0
273 -24 -46 -51 0
-274 15 0
-274 60 0
274 -15 -60 0
-275 6 0
-275 60 0
-275 66 0
275 -6 -60 -66 0
-272 273 274 275 0
-273 272 274 275 0
-274 272 273 275 0
-275 272 273 274 0
-276 58 0
276 -58 0
-277 48 0
-277 51 0
277 -48 -51 0
-278 23 0
-278 67 0
278 -23 -67 0
-279 23 0
-279 54 0
279 -23 -54 0
-280 6 0
-280 58 0
-280 67 0
280 -6 -58 -67 0
-276 277 278 279 280 0
-277 276 278 279 280 0
-278 276 277 279 280 0
-279 276 277 278 280 0
-280 276 277 278 279 0
-281 73 0
281 -73 0
-282 67 0
282 -67 0
-283 59 0
283 -59 0
-284 54 0
284 -54 0
-285 6 0
-285 59 0
-285 67 0
285 -6 -59 -67 0
-286 6 0
-286 54 0
-286 73 0
286 -6 -54 -73 0
-287 6 0
-287 51 0
-287 76 0
287 -6 -51 -76 0
-281 282 283 284 285 286 287 0
-282 281 283 284 285 286 287 0
-283 281 282 284 285 286 287 0
-284 281 282 283 285 286 287 0
-285 281 282 283 284 286 287 0
-286 281 282 283 284 285 287 0
-287 281 282 283 284 285 286 0
-288 60 0
288 -60 0
-289 24 0
-289 67 0
289 -24 -67 0
-290 24 0
-290 54 0
290 -24 -54 0
-291 6 0
-291 60 0
-291 67 0
291 -6 -60 -67 0
-288 289 290 291 0
-289 288 290 291 0
-290 288 289 291 0
-291 288 289 290 0
-292 23 0
-292 68 0
292 -23 -68 0
-293 16 0
-293 58 0
293 -16 -58 0
-294 16 0
-294 48 0
-294 51 0
294 -16 -48 -51 0
-295 6 0
-295 58 0
-295 68 0
295 -6 -58 -68 0
-292 293 294 295 0
-293 292 294 295 0
-294 292 293 295 0
-295 292 293 294 0
-296 68 0
296 -68 0
-297 16 0
-297 73 0
297 -16 -73 0
-298 16 0
-298 59 0
298 -16 -59 0
-299 6 0
-299 59 0
-299 68 0
299 -6 -59 -68 0
-296 297 298 299 0
-297 296 298 299 0
-298 296 297 299 0
-299 296 297 298 0
-300 24 0
-300 68 0
300 -24 -68 0
-301 16 0
-301 60 0
301 -16 -60 0
-302 6 0
-302 60 0
-302 68 0
302 -6 -60 -68 0
-303 6 0
-303 51 0
-303 77 0
303 -6 -51 -77 0
-300 301 302 303 0
-301 300 302 303 0
-302 300 301 303 0
-303 300 301 302 0
-304 23 0
-304 69 0
304 -23 -69 0
-305 15 0
-305 39 0
-305 58 0
305 -15 -39 -58 0
-306 6 0
-306 58 0
-306 69 0
306 -6 -58 -69 0
-304 305 306 0
-305 304 306 0
-306 304 305 0
-307 69 0
307 -69 0
-308 15 0
-308 39 0
-308 59 0
308 -15 -39 -59 0
-309 6 0
-309 59 0
-309 69 0
309 -6 -59 -69 0
-307 308 309 0
-308 307 309 0
-309 307 308 0
-310 24 0
-310 69 0
310 -24 -69 0
-311 15 0
-311 74 0
311 -15 -74 0
-312 15 0
-312 39 0
-312 60 0
312 -15 -39 -60 0
-313 6 0
-313 60 0
-313 69 0
313 -6 -60 -69 0
-310 311 312 313 0
-311 310 312 313 0
-312 310 311 313 0
-313 310 311 312 0
-314 39 0
-314 58 0
314 -39 -58 0
-315 23 0
-315 70 0
315 -23 -70 0
-316 23 0
-316 39 0
-316 54 0
316 -23 -39 -54 0
-317 6 0
-317 58 0
-317 70 0
317 -6 -58 -70 0
-314 315 316 317 0
-315 314 316 317 0
-316 314 315 317 0
-317 314 315 316 0
-318 70 0
318 -70 0
-319 39 0
-319 59 0
319 -39 -59 0
-320 39 0
-320 54 0
320 -39 -54 0
-321 6 0
-321 59 0
-321 70 0
321 -6 -59 -70 0
-318 319 320 321 0
-319 318 320 321 0
-320 318 319 321 0
-321 318 319 320 0
-322 74 0
322 -74 0
-323 39 0
-323 60 0
323 -39 -60 0
-324 24 0
-324 70 0
324 -24 -70 0
-325 24 0
-325 39 0
-325 54 0
325 -24 -39 -54 0
-326 6 0
-326 60 0
-326 70 0
326 -6 -60 -70 0
-327 6 0
-327 54 0
-327 74 0
327 -6 -54 -74 0
-322 323 324 325 326 327 0
-323 322 324 325 326 327 0
-324 322 323 325 326 327 0
-325 322 323 324 326 327 0
-326 322 323 324 325 327 0
-327 322 323 324 325 326 0
-328 23 0
-328 71 0
328 -23 -71 0
-329 16 0
-329 39 0
-329 58 0
329 -16 -39 -58 0
-330 6 0
-330 58 0
-330 71 0
330 -6 -58 -71 0
-328 329 330 0
-329 328 330 0
-330 328 329 0
-331 71 0
331 -71 0
-332 16 0
-332 39 0
-332 59 0
332 -16 -39 -59 0
-333 6 0
-333 59 0
-333 71 0
333 -6 -59 -71 0
-331 332 333 0
-332 331 333 0
-333 331 332 0
-334 24 0
-334 71 0
334 -24 -71 0
-335 16 0
-335 74 0
335 -16 -74 0
-336 16 0
-336 39 0
-336 60 0
336 -16 -39 -60 0
-337 6 0
-337 60 0
-337 71 0
337 -6 -60 -71 0
-334 335 336 337 0
-335 334 336 337 0
-336 334 335 337 0
-337 334 335 336 0
-338 23 0
-338 31 0
-338 64 0
338 -23 -31 -64 0
-339 15 0
-339 38 0
-339 61 0
339 -15 -38 -61 0
-340 15 0
-340 31 0
-340 72 0
340 -15 -31 -72 0
-341 12 0
-341 46 0
-341 61 0
341 -12 -46 -61 0
-342 12 0
-342 31 0
-342 75 0
342 -12 -31 -75 0
-343 6 0
-343 61 0
-343 64 0
343 -6 -61 -64 0
-338 339 340 341 342 343 0
-339 338 340 341 342 343 0
-340 338 339 341 342 343 0
-341 338 339 340 342 343 0
-342 338 339 340 341 343 0
-343 338 339 340 341 342 0
-344 31 0
-344 64 0
344 -31 -64 0
-345 15 0
-345 38 0
-345 62 0
345 -15 -38 -62 0
-346 12 0
-346 46 0
-346 62 0
346 -12 -46 -62 0
-347 6 0
-347 62 0
-347 64 0
347 -6 -62 -64 0
-344 345 346 347 0
-345 344 346 347 0
-346 344 345 347 0
-347 344 345 346 0
-348 24 0
-348 31 0
-348 64 0
348 -24 -31 -64 0
-349 15 0
-349 38 0
-349 63 0
349 -15 -38 -63 0
-350 12 0
-350 46 0
-350 63 0
350 -12 -46 -63 0
-351 6 0
-351 63 0
-351 64 0
351 -6 -63 -64 0
-348 349 350 351 0
-349 348 350 351 0
-350 348 349 351 0
-351 348 349 350 0
-352 38 0
-352 61 0
352 -38 -61 0
-353 31 0
-353 72 0
353 -31 -72 0
-354 23 0
-354 31 0
354 -23 -31 0
-355 6 0
-355 61 0
355 -6 -61 0
-352 353 354 355 0
-353 352 354 355 0
-354 352 353 355 0
-355 352 353 354 0
-356 38 0
-356 62 0
356 -38 -62 0
-357 31 0
357 -31 0
-358 12 0
-358 31 0
-358 76 0
358 -12 -31 -76 0
-359 6 0
-359 62 0
359 -6 -62 0
-356 357 358 359 0
-357 356 358 359 0
-358 356 357 359 0
-359 356 357 358 0
-360 38 0
-360 63 0
360 -38 -63 0
-361 24 0
-361 31 0
361 -24 -31 0
-362 6 0
-362 63 0
362 -6 -63 0
-360 361 362 0
-361 360 362 0
-362 360 361 0
-363 23 0
-363 38 0
-363 55 0
363 -23 -38 -55 0
-364 23 0
-364 31 0
-364 65 0
364 -23 -31 -65 0
-365 16 0
-365 38 0
-365 61 0
365 -16 -38 -61 0
-366 16 0
-366 31 0
-366 72 0
366 -16 -31 -72 0
-367 12 0
-367 48 0
-367 55 0
367 -12 -48 -55 0
-368 6 0
-368 61 0
-368 65 0
368 -6 -61 -65 0
-369 6 0
-369 55 0
-369 72 0
369 -6 -55 -72 0
-363 364 365 366 367 368 369 0
-364 363 365 366 367 368 369 0
-365 363 364 366 367 368 369 0
-366 363 364 365 367 368 369 0
-367 363 364 365 366 368 369 0
-368 363 364 365 366 367 369 0
-369 363 364 365 366 367 368 0
-370 38 0
-370 55 0
370 -38 -55 0
-371 31 0
-371 65 0
371 -31 -65 0
-372 16 0
-372 38 0
-372 62 0
372 -16 -38 -62 0
-373 6 0
-373 62 0
-373 65 0
373 -6 -62 -65 0
-370 371 372 373 0
-371 370 372 373 0
-372 370 371 373 0
-373 370 371 372 0
-374 24 0
-374 38 0
-374 55 0
374 -24 -38 -55 0
-375 24 0
-375 31 0
-375 65 0
375 -24 -31 -65 0
-376 16 0
-376 38 0
-376 63 0
376 -16 -38 -63 0
-377 12 0
-377 31 0
-377 77 0
377 -12 -31 -77 0
-378 6 0
-378 63 0
-378 65 0
378 -6 -63 -65 0
-374 375 376 377 378 0
-375 374 376 377 378 0
-376 374 375 377 378 0
-377 374 375 376 378 0
-378 374 375 376 377 0
-379 23 0
-379 31 0
-379 66 0
379 -23 -31 -66 0
-380 15 0
-380 61 0
380 -15 -61 0
-381 6 0
-381 61 0
-381 66 0
381 -6 -61 -66 0
-379 380 381 0
-380 379 381 0
-381 379 380 0
-382 31 0
-382 66 0
382 -31 -66 0
-383 15 0
-383 62 0
383 -15 -62 0
-384 15 0
-384 31 0
-384 73 0
384 -15 -31 -73 0
-385 6 0
-385 62 0
-385 66 0
385 -6 -62 -66 0
-382 383 384 385 0
-383 382 384 385 0
-384 382 383 385 0
-385 382 383 384 0
-386 24 0
-386 31 0
-386 66 0
386 -24 -31 -66 0
-387 15 0
-387 63 0
387 -15 -63 0
-388 6 0
-388 63 0
-388 66 0
388 -6 -63 -66 0
-386 387 388 0
-387 386 388 0
-388 386 387 0
-389 61 0
389 -61 0
-390 23 0
-390 31 0
-390 67 0
390 -23 -31 -67 0
-391 6 0
-391 61 0
-391 67 0
391 -6 -61 -67 0
-389 390 391 0
-390 389 391 0
-391 389 390 0
-392 62 0
392 -62 0
-393 31 0
-393 73 0
393 -31 -73 0
-394 31 0
-394 67 0
394 -31 -67 0
-395 6 0
-395 62 0
-395 67 0
395 -6 -62 -67 0
-392 393 394 395 0
-393 392 394 395 0
-394 392 393 395 0
-395 392 393 394 0
-396 63 0
396 -63 0
-397 24 0
-397 31 0
-397 67 0
397 -24 -31 -67 0
-398 6 0
-398 63 0
-398 67 0
398 -6 -63 -67 0
-396 397 398 0
-397 396 398 0
-398 396 397 0
-399 23 0
-399 55 0
399 -23 -55 0
-400 23 0
-400 31 0
-400 68 0
400 -23 -31 -68 0
-401 16 0
-401 61 0
401 -16 -61 0
-402 6 0
-402 61 0
-402 68 0
402 -6 -61 -68 0
-399 400 401 402 0
-400 399 401 402 0
-401 399 400 402 0
-402 399 400 401 0
-403 55 0
403 -55 0
-404 31 0
-404 68 0
404 -31 -68 0
-405 16 0
-405 62 0
405 -16 -62 0
-406 16 0
-406 31 0
-406 73 0
406 -16 -31 -73 0
-407 6 0
-407 62 0
-407 68 0
407 -6 -62 -68 0
-408 6 0
-408 55 0
-408 73 0
408 -6 -55 -73 0
-403 404 405 406 407 408 0
-404 403 405 406 407 408 0
-405 403 404 406 407 408 0
-406 403 404 405 407 408 0
-407 403 404 405 406 408 0
-408 403 404 405 406 407 0
-409 24 0
-409 55 0
409 -24 -55 0
-410 24 0
-410 31 0
-410 68 0
410 -24 -31 -68 0
-411 16 0
-411 63 0
411 -16 -63 0
-412 6 0
-412 63 0
-412 68 0
412 -6 -63 -68 0
-409 410 411 412 0
-410 409 411 412 0
-411 409 410 412 0
-412 409 410 411 0
-413 23 0
-413 46 0
-413 52 0
413 -23 -46 -52 0
-414 23 0
-414 31 0
-414 69 0
414 -23 -31 -69 0
-415 15 0
-415 48 0
-415 52 0
415 -15 -48 -52 0
-416 15 0
-416 39 0
-416 61 0
416 -15 -39 -61 0
-417 6 0
-417 61 0
-417 69 0
417 -6 -61 -69 0
-418 6 0
-418 52 0
-418 75 0
418 -6 -52 -75 0
-413 414 415 416 417 418 0
-414 413 415 416 417 418 0
-415 413 414 416 417 418 0
-416 413 414 415 417 418 0
-417 413 414 415 416 418 0
-418 413 414 415 416 417 0
-419 46 0
-419 52 0
419 -46 -52 0
-420 31 0
-420 69 0
420 -31 -69 0
-421 15 0
-421 39 0
-421 62 0
421 -15 -39 -62 0
-422 6 0
-422 62 0
-422 69 0
422 -6 -62 -69 0
-419 420 421 422 0
-420 419 421 422 0
-421 419 420 422 0
-422 419 420 421 0
-423 24 0
-423 46 0
-423 52 0
423 -24 -46 -52 0
-424 24 0
-424 31 0
-424 69 0
424 -24 -31 -69 0
-425 15 0
-425 39 0
-425 63 0
425 -15 -39 -63 0
-426 15 0
-426 31 0
-426 74 0
426 -15 -31 -74 0
-427 6 0
-427 63 0
-427 69 0
427 -6 -63 -69 0
-423 424 425 426 427 0
-424 423 425 426 427 0
-425 423 424 426 427 0
-426 423 424 425 427 0
-427 423 424 425 426 0
-428 48 0
-428 52 0
428 -48 -52 0
-429 39 0
-429 61 0
429 -39 -61 0
-430 23 0
-430 31 0
-430 70 0
430 -23 -31 -70 0
-431 6 0
-431 61 0
-431 70 0
431 -6 -61 -70 0
-428 429 430 431 0
-429 428 430 431 0
-430 428 429 431 0
-431 428 429 430 0
-432 39 0
-432 62 0
432 -39 -62 0
-433 31 0
-433 70 0
433 -31 -70 0
-434 6 0
-434 62 0
-434 70 0
434 -6 -62 -70 0
-435 6 0
-435 52 0
-435 76 0
435 -6 -52 -76 0
-432 433 434 435 0
-433 432 434 435 0
-434 432 433 435 0
-435 432 433 434 0
-436 39 0
-436 63 0
436 -39 -63 0
-437 31 0
-437 74 0
437 -31 -74 0
-438 24 0
-438 31 0
-438 70 0
438 -24 -31 -70 0
-439 6 0
-439 63 0
-439 70 0
439 -6 -63 -70 0
-436 437 438 439 0
-437 436 438 439 0
-438 436 437 439 0
-439 436 437 438 0
-440 23 0
-440 39 0
-440 55 0
440 -23 -39 -55 0
-441 23 0
-441 31 0
-441 71 0
441 -23 -31 -71 0
-442 16 0
-442 48 0
-442 52 0
442 -16 -48 -52 0
-443 16 0
-443 39 0
-443 61 0
443 -16 -39 -61 0
-444 6 0
-444 61 0
-444 71 0
444 -6 -61 -71 0
-440 441 442 443 444 0
-441 440 442 443 444 0
-442 440 441 443 444 0
-443 440 441 442 444 0
-444 440 441 442 443 0
-445 39 0
-445 55 0
445 -39 -55 0
-446 31 0
-446 71 0
446 -31 -71 0
-447 16 0
-447 39 0
-447 62 0
447 -16 -39 -62 0
-448 6 0
-448 62 0
-448 71 0
448 -6 -62 -71 0
-445 446 447 448 0
-446 445 447 448 0
-447 445 446 448 0
-448 445 446 447 0
-449 24 0
-449 39 0
-449 55 0
449 -24 -39 -55 0
-450 24 0
-450 31 0
-450 71 0
450 -24 -31 -71 0
-451 16 0
-451 39 0
-451 63 0
451 -16 -39 -63 0
-452 16 0
-452 31 0
-452 74 0
452 -16 -31 -74 0
-453 6 0
-453 63 0
-453 71 0
453 -6 -63 -71 0
-454 6 0
-454 55 0
-454 74 0
454 -6 -55 -74 0
-455 6 0
-455 52 0
-455 77 0
455 -6 -52 -77 0
-449 450 451 452 453 454 455 0
-450 449 451 452 453 454 455 0
-451 449 450 452 453 454 455 0
-452 449 450 451 453 454 455 0
-453 449 450 451 452 454 455 0
-454 449 450 451 452 453 455 0
-455 449 450 451 452 453 454 0
-456 23 0
-456 40 0
-456 53 0
456 -23 -40 -53 0
-457 23 0
-457 32 0
-457 64 0
457 -23 -32 -64 0
-458 15 0
-458 40 0
-458 56 0
458 -15 -40 -56 0
-459 15 0
-459 32 0
-459 72 0
459 -15 -32 -72 0
-460 12 0
-460 32 0
-460 75 0
460 -12 -32 -75 0
-461 9 0
-461 40 0
-461 75 0
461 -9 -40 -75 0
-456 457 458 459 460 461 0
-457 456 458 459 460 461 0
-458 456 457 459 460 461 0
-459 456 457 458 460 461 0
-460 456 457 458 459 461 0
-461 456 457 458 459 460 0
-462 40 0
-462 53 0
462 -40 -53 0
-463 32 0
-463 64 0
463 -32 -64 0
-464 15 0
-464 40 0
464 -15 -40 0
-465 4 0
-465 15 0
-465 41 0
-465 50 0
-465 59 0
465 -4 -15 -41 -50 -59 0
-466 4 0
-466 15 0
-466 33 0
-466 50 0
-466 73 0
466 -4 -15 -33 -50 -73 0
-467 4 0
-467 12 0
-467 41 0
-467 53 0
-467 59 0
467 -4 -12 -41 -53 -59 0
-468 4 0
-468 12 0
-468 33 0
-468 53 0
-468 73 0
468 -4 -12 -33 -53 -73 0
-469 4 0
-469 9 0
-469 41 0
-469 59 0
-469 64 0
469 -4 -9 -41 -59 -64 0
-470 4 0
-470 9 0
-470 33 0
-470 64 0
-470 73 0
470 -4 -9 -33 -64 -73 0
-462 463 464 465 466 467 468 469 470 0
-463 462 464 465 466 467 468 469 470 0
-464 462 463 465 466 467 468 469 470 0
-465 462 463 464 466 467 468 469 470 0
-466 462 463 464 465 467 468 469 470 0
-467 462 463 464 465 466 468 469 470 0
-468 462 463 464 465 466 467 469 470 0
-469 462 463 464 465 466 467 468 470 0
-470 462 463 464 465 466 467 468 469 0
-471 24 0
-471 40 0
-471 53 0
471 -24 -40 -53 0
-472 24 0
-472 32 0
-472 64 0
472 -24 -32 -64 0
-473 15 0
-473 40 0
-473 57 0
473 -15 -40 -57 0
-471 472 473 0
-472 471 473 0
-473 471 472 0
-474 40 0
-474 56 0
474 -40 -56 0
-475 32 0
-475 72 0
475 -32 -72 0
-476 23 0
-476 32 0
476 -23 -32 0
-477 4 0
-477 23 0
-477 41 0
-477 50 0
-477 54 0
477 -4 -23 -41 -50 -54 0
-478 4 0
-478 23 0
-478 33 0
-478 50 0
-478 67 0
478 -4 -23 -33 -50 -67 0
-479 4 0
-479 12 0
-479 41 0
-479 54 0
-479 56 0
479 -4 -12 -41 -54 -56 0
-480 4 0
-480 12 0
-480 33 0
-480 56 0
-480 67 0
480 -4 -12 -33 -56 -67 0
-481 4 0
-481 9 0
-481 41 0
-481 54 0
-481 72 0
481 -4 -9 -41 -54 -72 0
-482 4 0
-482 9 0
-482 33 0
-482 67 0
-482 72 0
482 -4 -9 -33 -67 -72 0
-474 475 476 477 478 479 480 481 482 0
-475 474 476 477 478 479 480 481 482 0
-476 474 475 477 478 479 480 481 482 0
-477 474 475 476 478 479 480 481 482 0
-478 474 475 476 477 479 480 481 482 0
-479 474 475 476 477 478 480 481 482 0
-480 474 475 476 477 478 479 481 482 0
-481 474 475 476 477 478 479 480 482 0
-482 474 475 476 477 478 479 480 481 0
-483 40 0
483 -40 0
-484 32 0
484 -32 0
-485 12 0
-485 32 0
-485 76 0
485 -12 -32 -76 0
-486 9 0
-486 40 0
-486 76 0
486 -9 -40 -76 0
-487 4 0
-487 41 0
-487 50 0
-487 59 0
487 -4 -41 -50 -59 0
-488 4 0
-488 41 0
-488 50 0
-488 54 0
488 -4 -41 -50 -54 0
-489 4 0
-489 33 0
-489 50 0
-489 73 0
489 -4 -33 -50 -73 0
-490 4 0
-490 33 0
-490 50 0
-490 67 0
490 -4 -33 -50 -67 0
-491 4 0
-491 12 0
-491 41 0
-491 54 0
491 -4 -12 -41 -54 0
-492 4 0
-492 12 0
-492 33 0
-492 67 0
492 -4 -12 -33 -67 0
-493 4 0
-493 9 0
-493 41 0
-493 59 0
493 -4 -9 -41 -59 0
-494 4 0
-494 9 0
-494 33 0
-494 73 0
494 -4 -9 -33 -73 0
-483 484 485 486 487 488 489 490 491 492 493 494 0
-484 483 485 486 487 488 489 490 491 492 493 494 0
-485 483 484 486 487 488 489 490 491 492 493 494 0
-486 483 484 485 487 488 489 490 491 492 493 494 0
-487 483 484 485 486 488 489 490 491 492 493 494 0
-488 483 484 485 486 487 489 490 491 492 493 494 0
-489 483 484 485 486 487 488 490 491 492 493 494 0
-490 483 484 485 486 487 488 489 491 492 493 494 0
-491 483 484 485 486 487 488 489 490 492 493 494 0
-492 483 484 485 486 487 488 489 490 491 493 494 0
-493 483 484 485 486 487 488 489 490 491 492 494 0
-494 483 484 485 486 487 488 489 490 491 492 493 0
-495 40 0
-495 57 0
495 -40 -57 0
-496 24 0
-496 32 0
496 -24 -32 0
-497 4 0
-497 24 0
-497 41 0
-497 50 0
-497 54 0
497 -4 -24 -41 -50 -54 0
-498 4 0
-498 24 0
-498 33 0
-498 50 0
-498 67 0
498 -4 -24 -33 -50 -67 0
-499 4 0
-499 12 0
-499 41 0
-499 54 0
-499 57 0
499 -4 -12 -41 -54 -57 0
-500 4 0
-500 12 0
-500 33 0
-500 57 0
-500 67 0
500 -4 -12 -33 -57 -67 0
-495 496 497 498 499 500 0
-496 495 497 498 499 500 0
-497 495 496 498 499 500 0
-498 495 496 497 499 500 0
-499 495 496 497 498 500 0
-500 495 496 497 498 499 0
-501 23 0
-501 32 0
-501 65 0
501 -23 -32 -65 0
-502 16 0
-502 40 0
-502 56 0
502 -16 -40 -56 0
-503 16 0
-503 32 0
-503 72 0
503 -16 -32 -72 0
-501 502 503 0
-502 501 503 0
-503 501 502 0
-504 32 0
-504 65 0
504 -32 -65 0
-505 16 0
-505 40 0
505 -16 -40 0
-506 4 0
-506 16 0
-506 41 0
-506 50 0
-506 59 0
506 -4 -16 -41 -50 -59 0
-507 4 0
-507 16 0
-507 33 0
-507 50 0
-507 73 0
507 -4 -16 -33 -50 -73 0
-508 4 0
-508 9 0
-508 41 0
-508 59 0
-508 65 0
508 -4 -9 -41 -59 -65 0
-509 4 0
-509 9 0
-509 33 0
-509 65 0
-509 73 0
509 -4 -9 -33 -65 -73 0
-504 505 506 507 508 509 0
-505 504 506 507 508 509 0
-506 504 505 507 508 509 0
-507 504 505 506 508 509 0
-508 504 505 506 507 509 0
-509 504 505 506 507 508 0
-510 24 0
-510 32 0
-510 65 0
510 -24 -32 -65 0
-511 16 0
-511 40 0
-511 57 0
511 -16 -40 -57 0
-512 12 0
-512 32 0
-512 77 0
512 -12 -32 -77 0
-513 9 0
-513 40 0
-513 77 0
513 -9 -40 -77 0
-510 511 512 513 0
-511 510 512 513 0
-512 510 511 513 0
-513 510 511 512 0
-514 23 0
-514 41 0
-514 53 0
514 -23 -41 -53 0
-515 23 0
-515 32 0
-515 66 0
515 -23 -32 -66 0
-516 15 0
-516 41 0
-516 56 0
516 -15 -41 -56 0
-517 9 0
-517 41 0
-517 75 0
517 -9 -41 -75 0
-514 515 516 517 0
-515 514 516 517 0
-516 514 515 517 0
-517 514 515 516 0
-518 41 0
-518 53 0
518 -41 -53 0
-519 32 0
-519 66 0
519 -32 -66 0
-520 15 0
-520 41 0
520 -15 -41 0
-521 15 0
-521 32 0
-521 73 0
521 -15 -32 -73 0
-522 4 0
-522 9 0
-522 41 0
-522 59 0
-522 66 0
522 -4 -9 -41 -59 -66 0
-523 4 0
-523 9 0
-523 33 0
-523 66 0
-523 73 0
523 -4 -9 -33 -66 -73 0
-518 519 520 521 522 523 0
-519 518 520 521 522 523 0
-520 518 519 521 522 523 0
-521 518 519 520 522 523 0
-522 518 519 520 521 523 0
-523 518 519 520 521 522 0
-524 24 0
-524 41 0
-524 53 0
524 -24 -41 -53 0
-525 24 0
-525 32 0
-525 66 0
525 -24 -32 -66 0
-526 15 0
-526 41 0
-526 57 0
526 -15 -41 -57 0
-524 525 526 0
-525 524 526 0
-526 524 525 0
-527 41 0
-527 56 0
527 -41 -56 0
-528 23 0
-528 32 0
-528 67 0
528 -23 -32 -67 0
-527 528 0
-528 527 0
-529 41 0
529 -41 0
-530 32 0
-530 73 0
530 -32 -73 0
-531 32 0
-531 67 0
531 -32 -67 0
-532 9 0
-532 41 0
-532 76 0
532 -9 -41 -76 0
-533 4 0
-533 9 0
-533 41 0
-533 59 0
-533 67 0
533 -4 -9 -41 -59 -67 0
-534 4 0
-534 9 0
-534 41 0
-534 54 0
-534 73 0
534 -4 -9 -41 -54 -73 0
-535 4 0
-535 9 0
-535 33 0
-535 67 0
-535 73 0
535 -4 -9 -33 -67 -73 0
-529 530 531 532 533 534 535 0
-530 529 531 532 533 534 535 0
-531 529 530 532 533 534 535 0
-532 529 530 531 533 534 535 0
-533 529 530 531 532 534 535 0
-534 529 530 531 532 533 535 0
-535 529 530 531 532 533 534 0
-536 41 0
-536 57 0
536 -41 -57 0
-537 24 0
-537 32 0
-537 67 0
537 -24 -32 -67 0
-536 537 0
-537 536 0
-538 23 0
-538 32 0
-538 68 0
538 -23 -32 -68 0
-539 16 0
-539 41 0
-539 56 0
539 -16 -41 -56 0
-538 539 0
-539 538 0
-540 32 0
-540 68 0
540 -32 -68 0
-541 16 0
-541 41 0
541 -16 -41 0
-542 16 0
-542 32 0
-542 73 0
542 -16 -32 -73 0
-543 4 0
-543 9 0
-543 41 0
-543 59 0
-543 68 0
543 -4 -9 -41 -59 -68 0
-544 4 0
-544 9 0
-544 33 0
-544 68 0
-544 73 0
544 -4 -9 -33 -68 -73 0
-540 541 542 543 544 0
-541 540 542 543 544 0
-542 540 541 543 544 0
-543 540 541 542 544 0
-544 540 541 542 543 0
-545 24 0
-545 32 0
-545 68 0
545 -24 -32 -68 0
-546 16 0
-546 41 0
-546 57 0
546 -16 -41 -57 0
-547 9 0
-547 41 0
-547 77 0
547 -9 -41 -77 0
-545 546 547 0
-546 545 547 0
-547 545 546 0
-548 23 0
-548 42 0
-548 53 0
548 -23 -42 -53 0
-549 23 0
-549 32 0
-549 69 0
549 -23 -32 -69 0
-550 15 0
-550 42 0
-550 56 0
550 -15 -42 -56 0
-551 9 0
-551 42 0
-551 75 0
551 -9 -42 -75 0
-548 549 550 551 0
-549 548 550 551 0
-550 548 549 551 0
-551 548 549 550 0
-552 42 0
-552 53 0
552 -42 -53 0
-553 32 0
-553 69 0
553 -32 -69 0
-554 15 0
-554 42 0
554 -15 -42 0
-555 4 0
-555 9 0
-555 41 0
-555 59 0
-555 69 0
555 -4 -9 -41 -59 -69 0
-556 4 0
-556 9 0
-556 33 0
-556 69 0
-556 73 0
556 -4 -9 -33 -69 -73 0
-552 553 554 555 556 0
-553 552 554 555 556 0
-554 552 553 555 556 0
-555 552 553 554 556 0
-556 552 553 554 555 0
-557 24 0
-557 42 0
-557 53 0
557 -24 -42 -53 0
-558 24 0
-558 32 0
-558 69 0
558 -24 -32 -69 0
-559 15 0
-559 42 0
-559 57 0
559 -15 -42 -57 0
-560 15 0
-560 32 0
-560 74 0
560 -15 -32 -74 0
-557 558 559 560 0
-558 557 559 560 0
-559 557 558 560 0
-560 557 558 559 0
-561 42 0
-561 56 0
561 -42 -56 0
-562 23 0
-562 32 0
-562 70 0
562 -23 -32 -70 0
-561 562 0
-562 561 0
-563 42 0
563 -42 0
-564 32 0
-564 70 0
564 -32 -70 0
-565 9 0
-565 42 0
-565 76 0
565 -9 -42 -76 0
-566 4 0
-566 9 0
-566 41 0
-566 59 0
-566 70 0
566 -4 -9 -41 -59 -70 0
-567 4 0
-567 9 0
-567 33 0
-567 70 0
-567 73 0
567 -4 -9 -33 -70 -73 0
-563 564 565 566 567 0
-564 563 565 566 567 0
-565 563 564 566 567 0
-566 563 564 565 567 0
-567 563 564 565 566 0
-568 42 0
-568 57 0
568 -42 -57 0
-569 32 0
-569 74 0
569 -32 -74 0
-570 24 0
-570 32 0
-570 70 0
570 -24 -32 -70 0
-571 4 0
-571 9 0
-571 41 0
-571 54 0
-571 74 0
571 -4 -9 -41 -54 -74 0
-572 4 0
-572 9 0
-572 33 0
-572 67 0
-572 74 0
572 -4 -9 -33 -67 -74 0
-568 569 570 571 572 0
-569 568 570 571 572 0
-570 568 569 571 572 0
-571 568 569 570 572 0
-572 568 569 570 571 0
-573 23 0
-573 32 0
-573 71 0
573 -23 -32 -71 0
-574 16 0
-574 42 0
-574 56 0
574 -16 -42 -56 0
-573 574 0
-574 573 0
-575 32 0
-575 71 0
575 -32 -71 0
-576 16 0
-576 42 0
576 -16 -42 0
-577 4 0
-577 9 0
-577 41 0
-577 59 0
-577 71 0
577 -4 -9 -41 -59 -71 0
-578 4 0
-578 9 0
-578 33 0
-578 71 0
-578 73 0
578 -4 -9 -33 -71 -73 0
-575 576 577 578 0
-576 575 577 578 0
-577 575 576 578 0
-578 575 576 577 0
-579 24 0
-579 32 0
-579 71 0
579 -24 -32 -71 0
-580 16 0
-580 42 0
-580 57 0
580 -16 -42 -57 0
-581 16 0
-581 32 0
-581 74 0
581 -16 -32 -74 0
-582 9 0
-582 42 0
-582 77 0
582 -9 -42 -77 0
-579 580 581 582 0
-580 579 581 582 0
-581 579 580 582 0
-582 579 580 581 0
-583 23 0
-583 33 0
-583 64 0
583 -23 -33 -64 0
-584 15 0
-584 40 0
-584 58 0
584 -15 -40 -58 0
-585 15 0
-585 33 0
-585 72 0
585 -15 -33 -72 0
-586 12 0
-586 33 0
-586 75 0
586 -12 -33 -75 0
-583 584 585 586 0
-584 583 585 586 0
-585 583 584 586 0
-586 583 584 585 0
-587 33 0
-587 64 0
587 -33 -64 0
-588 15 0
-588 40 0
-588 59 0
588 -15 -40 -59 0
-587 588 0
-588 587 0
-589 24 0
-589 33 0
-589 64 0
589 -24 -33 -64 0
-590 15 0
-590 40 0
-590 60 0
590 -15 -40 -60 0
-589 590 0
-590 589 0
-591 40 0
-591 58 0
591 -40 -58 0
-592 33 0
-592 72 0
592 -33 -72 0
-593 23 0
-593 40 0
-593 54 0
593 -23 -40 -54 0
-594 23 0
-594 33 0
594 -23 -33 0
-595 4 0
-595 12 0
-595 41 0
-595 54 0
-595 58 0
595 -4 -12 -41 -54 -58 0
-596 4 0
-596 12 0
-596 33 0
-596 58 0
-596 67 0
596 -4 -12 -33 -58 -67 0
-591 592 593 594 595 596 0
-592 591 593 594 595 596 0
-593 591 592 594 595 596 0
-594 591 592 593 595 596 0
-595 591 592 593 594 596 0
-596 591 592 593 594 595 0
-597 40 0
-597 59 0
597 -40 -59 0
-598 40 0
-598 54 0
598 -40 -54 0
-599 33 0
599 -33 0
-600 12 0
-600 33 0
-600 76 0
600 -12 -33 -76 0
-601 4 0
-601 12 0
-601 41 0
-601 54 0
-601 59 0
601 -4 -12 -41 -54 -59 0
-602 4 0
-602 12 0
-602 33 0
-602 59 0
-602 67 0
602 -4 -12 -33 -59 -67 0
-603 4 0
-603 12 0
-603 33 0
-603 54 0
-603 73 0
603 -4 -12 -33 -54 -73 0
-597 598 599 600 601 602 603 0
-598 597 599 600 601 602 603 0
-599 597 598 600 601 602 603 0
-600 597 598 599 601 602 603 0
-601 597 598 599 600 602 603 0
-602 597 598 599 600 601 603 0
-603 597 598 599 600 601 602 0
-604 40 0
-604 60 0
604 -40 -60 0
-605 24 0
-605 40 0
-605 54 0
605 -24 -40 -54 0
-606 24 0
-606 33 0
606 -24 -33 0
-607 4 0
-607 12 0
-607 41 0
-607 54 0
-607 60 0
607 -4 -12 -41 -54 -60 0
-608 4 0
-608 12 0
-608 33 0
-608 60 0
-608 67 0
608 -4 -12 -33 -60 -67 0
-604 605 606 607 608 0
-605 604 606 607 608 0
-606 604 605 607 608 0
-607 604 605 606 608 0
-608 604 605 606 607 0
-609 23 0
-609 33 0
-609 65 0
609 -23 -33 -65 0
-610 16 0
-610 40 0
-610 58 0
610 -16 -40 -58 0
-611 16 0
-611 33 0
-611 72 0
611 -16 -33 -72 0
-609 610 611 0
-610 609 611 0
-611 609 610 0
-612 33 0
-612 65 0
612 -33 -65 0
-613 16 0
-613 40 0
-613 59 0
613 -16 -40 -59 0
-612 613 0
-613 612 0
-614 24 0
-614 33 0
-614 65 0
614 -24 -33 -65 0
-615 16 0
-615 40 0
-615 60 0
615 -16 -40 -60 0
-616 12 0
-616 33 0
-616 77 0
616 -12 -33 -77 0
-614 615 616 0
-615 614 616 0
-616 614 615 0
-617 23 0
-617 33 0
-617 66 0
617 -23 -33 -66 0
-618 15 0
-618 41 0
-618 58 0
618 -15 -41 -58 0
-617 618 0
-618 617 0
-619 33 0
-619 66 0
619 -33 -66 0
-620 15 0
-620 41 0
-620 59 0
620 -15 -41 -59 0
-621 15 0
-621 33 0
-621 73 0
621 -15 -33 -73 0
-622 4 0
-622 15 0
-622 41 0
-622 51 0
-622 59 0
622 -4 -15 -41 -51 -59 0
-623 4 0
-623 15 0
-623 33 0
-623 51 0
-623 73 0
623 -4 -15 -33 -51 -73 0
-619 620 621 622 623 0
-620 619 621 622 623 0
-621 619 620 622 623 0
-622 619 620 621 623 0
-623 619 620 621 622 0
-624 24 0
-624 33 0
-624 66 0
624 -24 -33 -66 0
-625 15 0
-625 41 0
-625 60 0
625 -15 -41 -60 0
-624 625 0
-625 624 0
-626 41 0
-626 58 0
626 -41 -58 0
-627 23 0
-627 41 0
-627 54 0
627 -23 -41 -54 0
-628 23 0
-628 33 0
-628 67 0
628 -23 -33 -67 0
-629 4 0
-629 23 0
-629 41 0
-629 51 0
-629 54 0
629 -4 -23 -41 -51 -54 0
-630 4 0
-630 23 0
-630 33 0
-630 51 0
-630 67 0
630 -4 -23 -33 -51 -67 0
-626 627 628 629 630 0
-627 626 628 629 630 0
-628 626 627 629 630 0
-629 626 627 628 630 0
-630 626 627 628 629 0
-631 41 0
-631 59 0
631 -41 -59 0
-632 41 0
-632 54 0
632 -41 -54 0
-633 33 0
-633 73 0
633 -33 -73 0
-634 33 0
-634 67 0
634 -33 -67 0
-635 4 0
-635 41 0
-635 51 0
-635 59 0
635 -4 -41 -51 -59 0
-636 4 0
-636 41 0
-636 51 0
-636 54 0
636 -4 -41 -51 -54 0
-637 4 0
-637 33 0
-637 51 0
-637 73 0
637 -4 -33 -51 -73 0
-638 4 0
-638 33 0
-638 51 0
-638 67 0
638 -4 -33 -51 -67 0
-631 632 633 634 635 636 637 638 0
-632 631 633 634 635 636 637 638 0
-633 631 632 634 635 636 637 638 0
-634 631 632 633 635 636 637 638 0
-635 631 632 633 634 636 637 638 0
-636 631 632 633 634 635 637 638 0
-637 631 632 633 634 635 636 638 0
-638 631 632 633 634 635 636 637 0
-639 41 0
-639 60 0
639 -41 -60 0
-640 24 0
-640 41 0
-640 54 0
640 -24 -41 -54 0
-641 24 0
-641 33 0
-641 67 0
641 -24 -33 -67 0
-642 4 0
-642 24 0
-642 41 0
-642 51 0
-642 54 0
642 -4 -24 -41 -51 -54 0
-643 4 0
-643 24 0
-643 33 0
-643 51 0
-643 67 0
643 -4 -24 -33 -51 -67 0
-639 640 641 642 643 0
-640 639 641 642 643 0
-641 639 640 642 643 0
-642 639 640 641 643 0
-643 639 640 641 642 0
-644 23 0
-644 33 0
-644 68 0
644 -23 -33 -68 0
-645 16 0
-645 41 0
-645 58 0
645 -16 -41 -58 0
-644 645 0
-645 644 0
-646 33 0
-646 68 0
646 -33 -68 0
-647 16 0
-647 41 0
-647 59 0
647 -16 -41 -59 0
-648 16 0
-648 33 0
-648 73 0
648 -16 -33 -73 0
-649 4 0
-649 16 0
-649 41 0
-649 51 0
-649 59 0
649 -4 -16 -41 -51 -59 0
-650 4 0
-650 16 0
-650 33 0
-650 51 0
-650 73 0
650 -4 -16 -33 -51 -73 0
-646 647 648 649 650 0
-647 646 648 649 650 0
-648 646 647 649 650 0
-649 646 647 648 650 0
-650 646 647 648 649 0
-651 24 0
-651 33 0
-651 68 0
651 -24 -33 -68 0
-652 16 0
-652 41 0
-652 60 0
652 -16 -41 -60 0
-651 652 0
-652 651 0
-653 23 0
-653 33 0
-653 69 0
653 -23 -33 -69 0
-654 15 0
-654 42 0
-654 58 0
654 -15 -42 -58 0
-653 654 0
-654 653 0
-655 33 0
-655 69 0
655 -33 -69 0
-656 15 0
-656 42 0
-656 59 0
656 -15 -42 -59 0
-655 656 0
-656 655 0
-657 24 0
-657 33 0
-657 69 0
657 -24 -33 -69 0
-658 15 0
-658 42 0
-658 60 0
658 -15 -42 -60 0
-659 15 0
-659 33 0
-659 74 0
659 -15 -33 -74 0
-657 658 659 0
-658 657 659 0
-659 657 658 0
-660 42 0
-660 58 0
660 -42 -58 0
-661 23 0
-661 42 0
-661 54 0
661 -23 -42 -54 0
-662 23 0
-662 33 0
-662 70 0
662 -23 -33 -70 0
-660 661 662 0
-661 660 662 0
-662 660 661 0
-663 42 0
-663 59 0
663 -42 -59 0
-664 42 0
-664 54 0
664 -42 -54 0
-665 33 0
-665 70 0
665 -33 -70 0
-663 664 665 0
-664 663 665 0
-665 663 664 0
-666 42 0
-666 60 0
666 -42 -60 0
-667 33 0
-667 74 0
667 -33 -74 0
-668 24 0
-668 42 0
-668 54 0
668 -24 -42 -54 0
-669 24 0
-669 33 0
-669 70 0
669 -24 -33 -70 0
-666 667 668 669 0
-667 666 668 669 0
-668 666 667 669 0
-669 666 667 668 0
-670 23 0
-670 33 0
-670 71 0
670 -23 -33 -71 0
-671 16 0
-671 42 0
-671 58 0
671 -16 -42 -58 0
-670 671 0
-671 670 0
-672 33 0
-672 71 0
672 -33 -71 0
-673 16 0
-673 42 0
-673 59 0
673 -16 -42 -59 0
-672 673 0
-673 672 0
-674 24 0
-674 33 0
-674 71 0
674 -24 -33 -71 0
-675 16 0
-675 42 0
-675 60 0
675 -16 -42 -60 0
-676 16 0
-676 33 0
-676 74 0
676 -16 -33 -74 0
-674 675 676 0
-675 674 676 0
-676 674 675 0
-677 23 0
-677 34 0
-677 64 0
677 -23 -34 -64 0
-678 15 0
-678 40 0
-678 61 0
678 -15 -40 -61 0
-679 15 0
-679 34 0
-679 72 0
679 -15 -34 -72 0
-680 12 0
-680 34 0
-680 75 0
680 -12 -34 -75 0
-677 678 679 680 0
-678 677 679 680 0
-679 677 678 680 0
-680 677 678 679 0
-681 34 0
-681 64 0
681 -34 -64 0
-682 15 0
-682 40 0
-682 62 0
682 -15 -40 -62 0
-681 682 0
-682 681 0
-683 24 0
-683 34 0
-683 64 0
683 -24 -34 -64 0
-684 15 0
-684 40 0
-684 63 0
684 -15 -40 -63 0
-683 684 0
-684 683 0
-685 40 0
-685 61 0
685 -40 -61 0
-686 34 0
-686 72 0
686 -34 -72 0
-687 23 0
-687 34 0
687 -23 -34 0
-688 4 0
-688 12 0
-688 41 0
-688 54 0
-688 61 0
688 -4 -12 -41 -54 -61 0
-689 4 0
-689 12 0
-689 33 0
-689 61 0
-689 67 0
689 -4 -12 -33 -61 -67 0
-685 686 687 688 689 0
-686 685 687 688 689 0
-687 685 686 688 689 0
-688 685 686 687 689 0
-689 685 686 687 688 0
-690 40 0
-690 62 0
690 -40 -62 0
-691 34 0
691 -34 0
-692 12 0
-692 34 0
-692 76 0
692 -12 -34 -76 0
-693 4 0
-693 12 0
-693 41 0
-693 54 0
-693 62 0
693 -4 -12 -41 -54 -62 0
-694 4 0
-694 12 0
-694 33 0
-694 62 0
-694 67 0
694 -4 -12 -33 -62 -67 0
-690 691 692 693 694 0
-691 690 692 693 694 0
-692 690 691 693 694 0
-693 690 691 692 694 0
-694 690 691 692 693 0
-695 40 0
-695 63 0
695 -40 -63 0
-696 24 0
-696 34 0
696 -24 -34 0
-697 4 0
-697 12 0
-697 41 0
-697 54 0
-697 63 0
697 -4 -12 -41 -54 -63 0
-698 4 0
-698 12 0
-698 33 0
-698 63 0
-698 67 0
698 -4 -12 -33 -63 -67 0
-695 696 697 698 0
-696 695 697 698 0
-697 695 696 698 0
-698 695 696 697 0
-699 23 0
-699 40 0
-699 55 0
699 -23 -40 -55 0
-700 23 0
-700 34 0
-700 65 0
700 -23 -34 -65 0
-701 16 0
-701 40 0
-701 61 0
701 -16 -40 -61 0
-702 16 0
-702 34 0
-702 72 0
702 -16 -34 -72 0
-699 700 701 702 0
-700 699 701 702 0
-701 699 700 702 0
-702 699 700 701 0
-703 40 0
-703 55 0
703 -40 -55 0
-704 34 0
-704 65 0
704 -34 -65 0
-705 16 0
-705 40 0
-705 62 0
705 -16 -40 -62 0
-706 4 0
-706 12 0
-706 41 0
-706 55 0
-706 59 0
706 -4 -12 -41 -55 -59 0
-707 4 0
-707 12 0
-707 33 0
-707 55 0
-707 73 0
707 -4 -12 -33 -55 -73 0
-703 704 705 706 707 0
-704 703 705 706 707 0
-705 703 704 706 707 0
-706 703 704 705 707 0
-707 703 704 705 706 0
-708 24 0
-708 40 0
-708 55 0
708 -24 -40 -55 0
-709 24 0
-709 34 0
-709 65 0
709 -24 -34 -65 0
-710 16 0
-710 40 0
-710 63 0
710 -16 -40 -63 0
-711 12 0
-711 34 0
-711 77 0
711 -12 -34 -77 0
-708 709 710 711 0
-709 708 710 711 0
-710 708 709 711 0
-711 708 709 710 0
-712 23 0
-712 34 0
-712 66 0
712 -23 -34 -66 0
-713 15 0
-713 41 0
-713 61 0
713 -15 -41 -61 0
-712 713 0
-713 712 0
-714 34 0
-714 66 0
714 -34 -66 0
-715 15 0
-715 41 0
-715 62 0
715 -15 -41 -62 0
-716 15 0
-716 34 0
-716 73 0
716 -15 -34 -73 0
-714 715 716 0
-715 714 716 0
-716 714 715 0
-717 24 0
-717 34 0
-717 66 0
717 -24 -34 -66 0
-718 15 0
-718 41 0
-718 63 0
718 -15 -41 -63 0
-717 718 0
-718 717 0
-719 41 0
-719 61 0
719 -41 -61 0
-720 23 0
-720 34 0
-720 67 0
720 -23 -34 -67 0
-719 720 0
-720 719 0
-721 41 0
-721 62 0
721 -41 -62 0
-722 34 0
-722 73 0
722 -34 -73 0
-723 34 0
-723 67 0
723 -34 -67 0
-721 722 723 0
-722 721 723 0
-723 721 722 0
-724 41 0
-724 63 0
724 -41 -63 0
-725 24 0
-725 34 0
-725 67 0
725 -24 -34 -67 0
-724 725 0
-725 724 0
-726 23 0
-726 41 0
-726 55 0
726 -23 -41 -55 0
-727 23 0
-727 34 0
-727 68 0
727 -23 -34 -68 0
-728 16 0
-728 41 0
-728 61 0
728 -16 -41 -61 0
-726 727 728 0
-727 726 728 0
-728 726 727 0
-729 41 0
-729 55 0
729 -41 -55 0
-730 34 0
-730 68 0
730 -34 -68 0
-731 16 0
-731 41 0
-731 62 0
731 -16 -41 -62 0
-732 16 0
-732 34 0
-732 73 0
732 -16 -34 -73 0
-729 730 731 732 0
-730 729 731 732 0
-731 729 730 732 0
-732 729 730 731 0
-733 24 0
-733 41 0
-733 55 0
733 -24 -41 -55 0
-734 24 0
-734 34 0
-734 68 0
734 -24 -34 -68 0
-735 16 0
-735 41 0
-735 63 0
735 -16 -41 -63 0
-733 734 735 0
-734 733 735 0
-735 733 734 0
-736 23 0
-736 34 0
-736 69 0
736 -23 -34 -69 0
-737 15 0
-737 42 0
-737 61 0
737 -15 -42 -61 0
-736 737 0
-737 736 0
-738 34 0
-738 69 0
738 -34 -69 0
-739 15 0
-739 42 0
-739 62 0
739 -15 -42 -62 0
-740 4 0
-740 15 0
-740 41 0
-740 52 0
-740 59 0
740 -4 -15 -41 -52 -59 0
-741 4 0
-741 15 0
-741 33 0
-741 52 0
-741 73 0
741 -4 -15 -33 -52 -73 0
-738 739 740 741 0
-739 738 740 741 0
-740 738 739 741 0
-741 738 739 740 0
-742 24 0
-742 34 0
-742 69 0
742 -24 -34 -69 0
-743 15 0
-743 42 0
-743 63 0
743 -15 -42 -63 0
-744 15 0
-744 34 0
-744 74 0
744 -15 -34 -74 0
-742 743 744 0
-743 742 744 0
-744 742 743 0
-745 42 0
-745 61 0
745 -42 -61 0
-746 23 0
-746 34 0
-746 70 0
746 -23 -34 -70 0
-747 4 0
-747 23 0
-747 41 0
-747 52 0
-747 54 0
747 -4 -23 -41 -52 -54 0
-748 4 0
-748 23 0
-748 33 0
-748 52 0
-748 67 0
748 -4 -23 -33 -52 -67 0
-745 746 747 748 0
-746 745 747 748 0
-747 745 746 748 0
-748 745 746 747 0
-749 42 0
-749 62 0
749 -42 -62 0
-750 34 0
-750 70 0
750 -34 -70 0
-751 4 0
-751 41 0
-751 52 0
-751 59 0
751 -4 -41 -52 -59 0
-752 4 0
-752 41 0
-752 52 0
-752 54 0
752 -4 -41 -52 -54 0
-753 4 0
-753 33 0
-753 52 0
-753 73 0
753 -4 -33 -52 -73 0
-754 4 0
-754 33 0
-754 52 0
-754 67 0
754 -4 -33 -52 -67 0
-749 750 751 752 753 754 0
-750 749 751 752 753 754 0
-751 749 750 752 753 754 0
-752 749 750 751 753 754 0
-753 749 750 751 752 754 0
-754 749 750 751 752 753 0
-755 42 0
-755 63 0
755 -42 -63 0
-756 34 0
-756 74 0
756 -34 -74 0
-757 24 0
-757 34 0
-757 70 0
757 -24 -34 -70 0
-758 4 0
-758 24 0
-758 41 0
-758 52 0
-758 54 0
758 -4 -24 -41 -52 -54 0
-759 4 0
-759 24 0
-759 33 0
-759 52 0
-759 67 0
759 -4 -24 -33 -52 -67 0
-755 756 757 758 759 0
-756 755 757 758 759 0
-757 755 756 758 759 0
-758 755 756 757 759 0
-759 755 756 757 758 0
-760 23 0
-760 42 0
-760 55 0
760 -23 -42 -55 0
-761 23 0
-761 34 0
-761 71 0
761 -23 -34 -71 0
-762 16 0
-762 42 0
-762 61 0
762 -16 -42 -61 0
-760 761 762 0
-761 760 762 0
-762 760 761 0
-763 42 0
-763 55 0
763 -42 -55 0
-764 34 0
-764 71 0
764 -34 -71 0
-765 16 0
-765 42 0
-765 62 0
765 -16 -42 -62 0
-766 4 0
-766 16 0
-766 41 0
-766 52 0
-766 59 0
766 -4 -16 -41 -52 -59 0
-767 4 0
-767 16 0
-767 33 0
-767 52 0
-767 73 0
767 -4 -16 -33 -52 -73 0
-763 764 765 766 767 0
-764 763 765 766 767 0
-765 763 764 766 767 0
-766 763 764 765 767 0
-767 763 764 765 766 0
-768 24 0
-768 42 0
-768 55 0
768 -24 -42 -55 0
-769 24 0
-769 34 0
-769 71 0
769 -24 -34 -71 0
-770 16 0
-770 42 0
-770 63 0
770 -16 -42 -63 0
-771 16 0
-771 34 0
-771 74 0
771 -16 -34 -74 0
-768 769 770 771 0
-769 768 770 771 0
-770 768 769 771 0
-771 768 769 770 0
-772 23 0
-772 43 0
-772 53 0
772 -23 -43 -53 0
-773 23 0
-773 35 0
-773 64 0
773 -23 -35 -64 0
-774 15 0
-774 43 0
-774 56 0
774 -15 -43 -56 0
-775 15 0
-775 35 0
-775 72 0
775 -15 -35 -72 0
-776 12 0
-776 35 0
-776 75 0
776 -12 -35 -75 0
-777 9 0
-777 43 0
-777 75 0
777 -9 -43 -75 0
-772 773 774 775 776 777 0
-773 772 774 775 776 777 0
-774 772 773 775 776 777 0
-775 772 773 774 776 777 0
-776 772 773 774 775 777 0
-777 772 773 774 775 776 0
-778 43 0
-778 53 0
778 -43 -53 0
-779 35 0
-779 64 0
779 -35 -64 0
-780 15 0
-780 43 0
780 -15 -43 0
-778 779 780 0
-779 778 780 0
-780 778 779 0
-781 24 0
-781 43 0
-781 53 0
781 -24 -43 -53 0
-782 24 0
-782 35 0
-782 64 0
782 -24 -35 -64 0
-783 15 0
-783 49 0
-783 50 0
783 -15 -49 -50 0
-784 15 0
-784 43 0
-784 57 0
784 -15 -43 -57 0
-785 12 0
-785 49 0
-785 53 0
785 -12 -49 -53 0
-786 9 0
-786 49 0
-786 64 0
786 -9 -49 -64 0
-781 782 783 784 785 786 0
-782 781 783 784 785 786 0
-783 781 782 784 785 786 0
-784 781 782 783 785 786 0
-785 781 782 783 784 786 0
-786 781 782 783 784 785 0
-787 43 0
-787 56 0
787 -43 -56 0
-788 35 0
-788 72 0
788 -35 -72 0
-789 23 0
-789 35 0
789 -23 -35 0
-787 788 789 0
-788 787 789 0
-789 787 788 0
-790 43 0
790 -43 0
-791 35 0
791 -35 0
-792 12 0
-792 35 0
-792 76 0
792 -12 -35 -76 0
-793 9 0
-793 43 0
-793 76 0
793 -9 -43 -76 0
-790 791 792 793 0
-791 790 792 793 0
-792 790 791 793 0
-793 790 791 792 0
-794 49 0
-794 50 0
794 -49 -50 0
-795 43 0
-795 57 0
795 -43 -57 0
-796 24 0
-796 35 0
796 -24 -35 0
-797 9 0
-797 49 0
797 -9 -49 0
-794 795 796 797 0
-795 794 796 797 0
-796 794 795 797 0
-797 794 795 796 0
-798 23 0
-798 47 0
-798 50 0
798 -23 -47 -50 0
-799 23 0
-799 35 0
-799 65 0
799 -23 -35 -65 0
-800 16 0
-800 43 0
-800 56 0
800 -16 -43 -56 0
-801 16 0
-801 35 0
-801 72 0
801 -16 -35 -72 0
-802 12 0
-802 47 0
-802 56 0
802 -12 -47 -56 0
-803 9 0
-803 47 0
-803 72 0
803 -9 -47 -72 0
-798 799 800 801 802 803 0
-799 798 800 801 802 803 0
-800 798 799 801 802 803 0
-801 798 799 800 802 803 0
-802 798 799 800 801 803 0
-803 798 799 800 801 802 0
-804 47 0
-804 50 0
804 -47 -50 0
-805 35 0
-805 65 0
805 -35 -65 0
-806 16 0
-806 43 0
806 -16 -43 0
-807 12 0
-807 47 0
807 -12 -47 0
-804 805 806 807 0
-805 804 806 807 0
-806 804 805 807 0
-807 804 805 806 0
-808 24 0
-808 47 0
-808 50 0
808 -24 -47 -50 0
-809 24 0
-809 35 0
-809 65 0
809 -24 -35 -65 0
-810 16 0
-810 49 0
-810 50 0
810 -16 -49 -50 0
-811 16 0
-811 43 0
-811 57 0
811 -16 -43 -57 0
-812 12 0
-812 47 0
-812 57 0
812 -12 -47 -57 0
-813 12 0
-813 35 0
-813 77 0
813 -12 -35 -77 0
-814 9 0
-814 49 0
-814 65 0
814 -9 -49 -65 0
-815 9 0
-815 43 0
-815 77 0
815 -9 -43 -77 0
-808 809 810 811 812 813 814 815 0
-809 808 810 811 812 813 814 815 0
-810 808 809 811 812 813 814 815 0
-811 808 809 810 812 813 814 815 0
-812 808 809 810 811 813 814 815 0
-813 808 809 810 811 812 814 815 0
-814 808 809 810 811 812 813 815 0
-815 808 809 810 811 812 813 814 0
-816 23 0
-816 44 0
-816 53 0
816 -23 -44 -53 0
-817 23 0
-817 35 0
-817 66 0
817 -23 -35 -66 0
-818 15 0
-818 44 0
-818 56 0
818 -15 -44 -56 0
-819 9 0
-819 44 0
-819 75 0
819 -9 -44 -75 0
-816 817 818 819 0
-817 816 818 819 0
-818 816 817 819 0
-819 816 817 818 0
-820 44 0
-820 53 0
820 -44 -53 0
-821 35 0
-821 66 0
821 -35 -66 0
-822 15 0
-822 44 0
822 -15 -44 0
-823 15 0
-823 35 0
-823 73 0
823 -15 -35 -73 0
-820 821 822 823 0
-821 820 822 823 0
-822 820 821 823 0
-823 820 821 822 0
-824 24 0
-824 44 0
-824 53 0
824 -24 -44 -53 0
-825 24 0
-825 35 0
-825 66 0
825 -24 -35 -66 0
-826 15 0
-826 44 0
-826 57 0
826 -15 -44 -57 0
-827 9 0
-827 49 0
-827 66 0
827 -9 -49 -66 0
-824 825 826 827 0
-825 824 826 827 0
-826 824 825 827 0
-827 824 825 826 0
-828 44 0
-828 56 0
828 -44 -56 0
-829 23 0
-829 35 0
-829 67 0
829 -23 -35 -67 0
-828 829 0
-829 828 0
-830 44 0
830 -44 0
-831 35 0
-831 73 0
831 -35 -73 0
-832 35 0
-832 67 0
832 -35 -67 0
-833 9 0
-833 44 0
-833 76 0
833 -9 -44 -76 0
-830 831 832 833 0
-831 830 832 833 0
-832 830 831 833 0
-833 830 831 832 0
-834 44 0
-834 57 0
834 -44 -57 0
-835 24 0
-835 35 0
-835 67 0
835 -24 -35 -67 0
-836 9 0
-836 49 0
-836 67 0
836 -9 -49 -67 0
-834 835 836 0
-835 834 836 0
-836 834 835 0
-837 23 0
-837 35 0
-837 68 0
837 -23 -35 -68 0
-838 16 0
-838 44 0
-838 56 0
838 -16 -44 -56 0
-837 838 0
-838 837 0
-839 35 0
-839 68 0
839 -35 -68 0
-840 16 0
-840 44 0
840 -16 -44 0
-841 16 0
-841 35 0
-841 73 0
841 -16 -35 -73 0
-842 9 0
-842 47 0
-842 73 0
842 -9 -47 -73 0
-839 840 841 842 0
-840 839 841 842 0
-841 839 840 842 0
-842 839 840 841 0
-843 24 0
-843 35 0
-843 68 0
843 -24 -35 -68 0
-844 16 0
-844 44 0
-844 57 0
844 -16 -44 -57 0
-845 9 0
-845 49 0
-845 68 0
845 -9 -49 -68 0
-846 9 0
-846 44 0
-846 77 0
846 -9 -44 -77 0
-843 844 845 846 0
-844 843 845 846 0
-845 843 844 846 0
-846 843 844 845 0
-847 23 0
-847 45 0
-847 53 0
847 -23 -45 -53 0
-848 23 0
-848 35 0
-848 69 0
848 -23 -35 -69 0
-849 15 0
-849 45 0
-849 56 0
849 -15 -45 -56 0
-850 9 0
-850 45 0
-850 75 0
850 -9 -45 -75 0
-847 848 849 850 0
-848 847 849 850 0
-849 847 848 850 0
-850 847 848 849 0
-851 45 0
-851 53 0
851 -45 -53 0
-852 35 0
-852 69 0
852 -35 -69 0
-853 15 0
-853 45 0
853 -15 -45 0
-851 852 853 0
-852 851 853 0
-853 851 852 0
-854 24 0
-854 45 0
-854 53 0
854 -24 -45 -53 0
-855 24 0
-855 35 0
-855 69 0
855 -24 -35 -69 0
-856 15 0
-856 45 0
-856 57 0
856 -15 -45 -57 0
-857 15 0
-857 35 0
-857 74 0
857 -15 -35 -74 0
-858 9 0
-858 49 0
-858 69 0
858 -9 -49 -69 0
-854 855 856 857 858 0
-855 854 856 857 858 0
-856 854 855 857 858 0
-857 854 855 856 858 0
-858 854 855 856 857 0
-859 45 0
-859 56 0
859 -45 -56 0
-860 23 0
-860 35 0
-860 70 0
860 -23 -35 -70 0
-859 860 0
-860 859 0
-861 45 0
861 -45 0
-862 35 0
-862 70 0
862 -35 -70 0
-863 9 0
-863 45 0
-863 76 0
863 -9 -45 -76 0
-861 862 863 0
-862 861 863 0
-863 861 862 0
-864 45 0
-864 57 0
864 -45 -57 0
-865 35 0
-865 74 0
865 -35 -74 0
-866 24 0
-866 35 0
-866 70 0
866 -24 -35 -70 0
-867 9 0
-867 49 0
-867 70 0
867 -9 -49 -70 0
-864 865 866 867 0
-865 864 866 867 0
-866 864 865 867 0
-867 864 865 866 0
-868 23 0
-868 35 0
-868 71 0
868 -23 -35 -71 0
-869 16 0
-869 45 0
-869 56 0
869 -16 -45 -56 0
-868 869 0
-869 868 0
-870 35 0
-870 71 0
870 -35 -71 0
-871 16 0
-871 45 0
871 -16 -45 0
-870 871 0
-871 870 0
-872 24 0
-872 35 0
-872 71 0
872 -24 -35 -71 0
-873 16 0
-873 45 0
-873 57 0
873 -16 -45 -57 0
-874 16 0
-874 35 0
-874 74 0
874 -16 -35 -74 0
-875 9 0
-875 49 0
-875 71 0
875 -9 -49 -71 0
-876 9 0
-876 47 0
-876 74 0
876 -9 -47 -74 0
-877 9 0
-877 45 0
-877 77 0
877 -9 -45 -77 0
-872 873 874 875 876 877 0
-873 872 874 875 876 877 0
-874 872 873 875 876 877 0
-875 872 873 874 876 877 0
-876 872 873 874 875 877 0
-877 872 873 874 875 876 0
-878 23 0
-878 36 0
-878 64 0
878 -23 -36 -64 0
-879 15 0
-879 43 0
-879 58 0
879 -15 -43 -58 0
-880 15 0
-880 36 0
-880 72 0
880 -15 -36 -72 0
-881 12 0
-881 36 0
-881 75 0
881 -12 -36 -75 0
-878 879 880 881 0
-879 878 880 881 0
-880 878 879 881 0
-881 878 879 880 0
-882 36 0
-882 64 0
882 -36 -64 0
-883 15 0
-883 43 0
-883 59 0
883 -15 -43 -59 0
-882 883 0
-883 882 0
-884 24 0
-884 36 0
-884 64 0
884 -24 -36 -64 0
-885 15 0
-885 43 0
-885 60 0
885 -15 -43 -60 0
-884 885 0
-885 884 0
-886 43 0
-886 58 0
886 -43 -58 0
-887 36 0
-887 72 0
887 -36 -72 0
-888 23 0
-888 43 0
-888 54 0
888 -23 -43 -54 0
-889 23 0
-889 36 0
889 -23 -36 0
-886 887 888 889 0
-887 886 888 889 0
-888 886 887 889 0
-889 886 887 888 0
-890 43 0
-890 59 0
890 -43 -59 0
-891 43 0
-891 54 0
891 -43 -54 0
-892 36 0
892 -36 0
-893 12 0
-893 36 0
-893 76 0
893 -12 -36 -76 0
-890 891 892 893 0
-891 890 892 893 0
-892 890 891 893 0
-893 890 891 892 0
-894 43 0
-894 60 0
894 -43 -60 0
-895 24 0
-895 43 0
-895 54 0
895 -24 -43 -54 0
-896 24 0
-896 36 0
896 -24 -36 0
-897 12 0
-897 49 0
-897 54 0
897 -12 -49 -54 0
-894 895 896 897 0
-895 894 896 897 0
-896 894 895 897 0
-897 894 895 896 0
-898 23 0
-898 36 0
-898 65 0
898 -23 -36 -65 0
-899 16 0
-899 43 0
-899 58 0
899 -16 -43 -58 0
-900 16 0
-900 36 0
-900 72 0
900 -16 -36 -72 0
-901 12 0
-901 47 0
-901 58 0
901 -12 -47 -58 0
-898 899 900 901 0
-899 898 900 901 0
-900 898 899 901 0
-901 898 899 900 0
-902 36 0
-902 65 0
902 -36 -65 0
-903 16 0
-903 43 0
-903 59 0
903 -16 -43 -59 0
-904 12 0
-904 47 0
-904 59 0
904 -12 -47 -59 0
-902 903 904 0
-903 902 904 0
-904 902 903 0
-905 24 0
-905 36 0
-905 65 0
905 -24 -36 -65 0
-906 16 0
-906 43 0
-906 60 0
906 -16 -43 -60 0
-907 12 0
-907 47 0
-907 60 0
907 -12 -47 -60 0
-908 12 0
-908 36 0
-908 77 0
908 -12 -36 -77 0
-905 906 907 908 0
-906 905 907 908 0
-907 905 906 908 0
-908 905 906 907 0
-909 23 0
-909 36 0
-909 66 0
909 -23 -36 -66 0
-910 15 0
-910 44 0
-910 58 0
910 -15 -44 -58 0
-909 910 0
-910 909 0
-911 36 0
-911 66 0
911 -36 -66 0
-912 15 0
-912 44 0
-912 59 0
912 -15 -44 -59 0
-913 15 0
-913 36 0
-913 73 0
913 -15 -36 -73 0
-911 912 913 0
-912 911 913 0
-913 911 912 0
-914 24 0
-914 36 0
-914 66 0
914 -24 -36 -66 0
-915 15 0
-915 49 0
-915 51 0
915 -15 -49 -51 0
-916 15 0
-916 44 0
-916 60 0
916 -15 -44 -60 0
-914 915 916 0
-915 914 916 0
-916 914 915 0
-917 44 0
-917 58 0
917 -44 -58 0
-918 23 0
-918 44 0
-918 54 0
918 -23 -44 -54 0
-919 23 0
-919 36 0
-919 67 0
919 -23 -36 -67 0
-917 918 919 0
-918 917 919 0
-919 917 918 0
-920 44 0
-920 59 0
920 -44 -59 0
-921 44 0
-921 54 0
921 -44 -54 0
-922 36 0
-922 73 0
922 -36 -73 0
-923 36 0
-923 67 0
923 -36 -67 0
-920 921 922 923 0
-921 920 922 923 0
-922 920 921 923 0
-923 920 921 922 0
-924 49 0
-924 51 0
924 -49 -51 0
-925 44 0
-925 60 0
925 -44 -60 0
-926 24 0
-926 44 0
-926 54 0
926 -24 -44 -54 0
-927 24 0
-927 36 0
-927 67 0
927 -24 -36 -67 0
-924 925 926 927 0
-925 924 926 927 0
-926 924 925 927 0
-927 924 925 926 0
-928 23 0
-928 47 0
-928 51 0
928 -23 -47 -51 0
-929 23 0
-929 36 0
-929 68 0
929 -23 -36 -68 0
-930 16 0
-930 44 0
-930 58 0
930 -16 -44 -58 0
-928 929 930 0
-929 928 930 0
-930 928 929 0
-931 47 0
-931 51 0
931 -47 -51 0
-932 36 0
-932 68 0
932 -36 -68 0
-933 16 0
-933 44 0
-933 59 0
933 -16 -44 -59 0
-934 16 0
-934 36 0
-934 73 0
934 -16 -36 -73 0
-931 932 933 934 0
-932 931 933 934 0
-933 931 932 934 0
-934 931 932 933 0
-935 24 0
-935 47 0
-935 51 0
935 -24 -47 -51 0
-936 24 0
-936 36 0
-936 68 0
936 -24 -36 -68 0
-937 16 0
-937 49 0
-937 51 0
937 -16 -49 -51 0
-938 16 0
-938 44 0
-938 60 0
938 -16 -44 -60 0
-935 936 937 938 0
-936 935 937 938 0
-937 935 936 938 0
-938 935 936 937 0
-939 23 0
-939 36 0
-939 69 0
939 -23 -36 -69 0
-940 15 0
-940 45 0
-940 58 0
940 -15 -45 -58 0
-939 940 0
-940 939 0
-941 36 0
-941 69 0
941 -36 -69 0
-942 15 0
-942 45 0
-942 59 0
942 -15 -45 -59 0
-941 942 0
-942 941 0
-943 24 0
-943 36 0
-943 69 0
943 -24 -36 -69 0
-944 15 0
-944 45 0
-944 60 0
944 -15 -45 -60 0
-945 15 0
-945 36 0
-945 74 0
945 -15 -36 -74 0
-943 944 945 0
-944 943 945 0
-945 943 944 0
-946 45 0
-946 58 0
946 -45 -58 0
-947 23 0
-947 45 0
-947 54 0
947 -23 -45 -54 0
-948 23 0
-948 36 0
-948 70 0
948 -23 -36 -70 0
-946 947 948 0
-947 946 948 0
-948 946 947 0
-949 45 0
-949 59 0
949 -45 -59 0
-950 45 0
-950 54 0
950 -45 -54 0
-951 36 0
-951 70 0
951 -36 -70 0
-949 950 951 0
-950 949 951 0
-951 949 950 0
-952 45 0
-952 60 0
952 -45 -60 0
-953 36 0
-953 74 0
953 -36 -74 0
-954 24 0
-954 45 0
-954 54 0
954 -24 -45 -54 0
-955 24 0
-955 36 0
-955 70 0
955 -24 -36 -70 0
-952 953 954 955 0
-953 952 954 955 0
-954 952 953 955 0
-955 952 953 954 0
-956 23 0
-956 36 0
-956 71 0
956 -23 -36 -71 0
-957 16 0
-957 45 0
-957 58 0
957 -16 -45 -58 0
-956 957 0
-957 956 0
-958 36 0
-958 71 0
958 -36 -71 0
-959 16 0
-959 45 0
-959 59 0
959 -16 -45 -59 0
-958 959 0
-959 958 0
-960 24 0
-960 36 0
-960 71 0
960 -24 -36 -71 0
-961 16 0
-961 45 0
-961 60 0
961 -16 -45 -60 0
-962 16 0
-962 36 0
-962 74 0
962 -16 -36 -74 0
-960 961 962 0
-961 960 962 0
-962 960 961 0
-963 23 0
-963 37 0
-963 64 0
963 -23 -37 -64 0
-964 15 0
-964 43 0
-964 61 0
964 -15 -43 -61 0
-965 15 0
-965 37 0
-965 72 0
965 -15 -37 -72 0
-966 12 0
-966 37 0
-966 75 0
966 -12 -37 -75 0
-963 964 965 966 0
-964 963 965 966 0
-965 963 964 966 0
-966 963 964 965 0
-967 37 0
-967 64 0
967 -37 -64 0
-968 15 0
-968 43 0
-968 62 0
968 -15 -43 -62 0
-967 968 0
-968 967 0
-969 24 0
-969 37 0
-969 64 0
969 -24 -37 -64 0
-970 15 0
-970 43 0
-970 63 0
970 -15 -43 -63 0
-969 970 0
-970 969 0
-971 43 0
-971 61 0
971 -43 -61 0
-972 37 0
-972 72 0
972 -37 -72 0
-973 23 0
-973 37 0
973 -23 -37 0
-971 972 973 0
-972 971 973 0
-973 971 972 0
-974 43 0
-974 62 0
974 -43 -62 0
-975 37 0
975 -37 0
-976 12 0
-976 37 0
-976 76 0
976 -12 -37 -76 0
-974 975 976 0
-975 974 976 0
-976 974 975 0
-977 43 0
-977 63 0
977 -43 -63 0
-978 24 0
-978 37 0
978 -24 -37 0
-977 978 0
-978 977 0
-979 23 0
-979 43 0
-979 55 0
979 -23 -43 -55 0
-980 23 0
-980 37 0
-980 65 0
980 -23 -37 -65 0
-981 16 0
-981 43 0
-981 61 0
981 -16 -43 -61 0
-982 16 0
-982 37 0
-982 72 0
982 -16 -37 -72 0
-983 12 0
-983 47 0
-983 61 0
983 -12 -47 -61 0
-979 980 981 982 983 0
-980 979 981 982 983 0
-981 979 980 982 983 0
-982 979 980 981 983 0
-983 979 980 981 982 0
-984 43 0
-984 55 0
984 -43 -55 0
-985 37 0
-985 65 0
985 -37 -65 0
-986 16 0
-986 43 0
-986 62 0
986 -16 -43 -62 0
-987 12 0
-987 47 0
-987 62 0
987 -12 -47 -62 0
-984 985 986 987 0
-985 984 986 987 0
-986 984 985 987 0
-987 984 985 986 0
-988 24 0
-988 43 0
-988 55 0
988 -24 -43 -55 0
-989 24 0
-989 37 0
-989 65 0
989 -24 -37 -65 0
-990 16 0
-990 43 0
-990 63 0
990 -16 -43 -63 0
-991 12 0
-991 49 0
-991 55 0
991 -12 -49 -55 0
-992 12 0
-992 47 0
-992 63 0
992 -12 -47 -63 0
-993 12 0
-993 37 0
-993 77 0
993 -12 -37 -77 0
-988 989 990 991 992 993 0
-989 988 990 991 992 993 0
-990 988 989 991 992 993 0
-991 988 989 990 992 993 0
-992 988 989 990 991 993 0
-993 988 989 990 991 992 0
-994 23 0
-994 37 0
-994 66 0
994 -23 -37 -66 0
-995 15 0
-995 44 0
-995 61 0
995 -15 -44 -61 0
-994 995 0
-995 994 0
-996 37 0
-996 66 0
996 -37 -66 0
-997 15 0
-997 44 0
-997 62 0
997 -15 -44 -62 0
-998 15 0
-998 37 0
-998 73 0
998 -15 -37 -73 0
-996 997 998 0
-997 996 998 0
-998 996 997 0
-999 24 0
-999 37 0
-999 66 0
999 -24 -37 -66 0
-1000 15 0
-1000 44 0
-1000 63 0
1000 -15 -44 -63 0
-999 1000 0
-1000 999 0
-1001 44 0
-1001 61 0
1001 -44 -61 0
-1002 23 0
-1002 37 0
-1002 67 0
1002 -23 -37 -67 0
-1001 1002 0
-1002 1001 0
-1003 44 0
-1003 62 0
1003 -44 -62 0
-1004 37 0
-1004 73 0
1004 -37 -73 0
-1005 37 0
-1005 67 0
1005 -37 -67 0
-1003 1004 1005 0
-1004 1003 1005 0
-1005 1003 1004 0
-1006 44 0
-1006 63 0
1006 -44 -63 0
-1007 24 0
-1007 37 0
-1007 67 0
1007 -24 -37 -67 0
-1006 1007 0
-1007 1006 0
-1008 23 0
-1008 44 0
-1008 55 0
1008 -23 -44 -55 0
-1009 23 0
-1009 37 0
-1009 68 0
1009 -23 -37 -68 0
-1010 16 0
-1010 44 0
-1010 61 0
1010 -16 -44 -61 0
-1008 1009 1010 0
-1009 1008 1010 0
-1010 1008 1009 0
-1011 44 0
-1011 55 0
1011 -44 -55 0
-1012 37 0
-1012 68 0
1012 -37 -68 0
-1013 16 0
-1013 44 0
-1013 62 0
1013 -16 -44 -62 0
-1014 16 0
-1014 37 0
-1014 73 0
1014 -16 -37 -73 0
-1011 1012 1013 1014 0
-1012 1011 1013 1014 0
-1013 1011 1012 1014 0
-1014 1011 1012 1013 0
-1015 24 0
-1015 44 0
-1015 55 0
1015 -24 -44 -55 0
-1016 24 0
-1016 37 0
-1016 68 0
1016 -24 -37 -68 0
-1017 16 0
-1017 44 0
-1017 63 0
1017 -16 -44 -63 0
-1015 1016 1017 0
-1016 1015 1017 0
-1017 1015 1016 0
-1018 23 0
-1018 37 0
-1018 69 0
1018 -23 -37 -69 0
-1019 15 0
-1019 45 0
-1019 61 0
1019 -15 -45 -61 0
-1018 1019 0
-1019 1018 0
-1020 37 0
-1020 69 0
1020 -37 -69 0
-1021 15 0
-1021 45 0
-1021 62 0
1021 -15 -45 -62 0
-1020 1021 0
-1021 1020 0
-1022 24 0
-1022 37 0
-1022 69 0
1022 -24 -37 -69 0
-1023 15 0
-1023 49 0
-1023 52 0
1023 -15 -49 -52 0
-1024 15 0
-1024 45 0
-1024 63 0
1024 -15 -45 -63 0
-1025 15 0
-1025 37 0
-1025 74 0
1025 -15 -37 -74 0
-1022 1023 1024 1025 0
-1023 1022 1024 1025 0
-1024 1022 1023 1025 0
-1025 1022 1023 1024 0
-1026 45 0
-1026 61 0
1026 -45 -61 0
-1027 23 0
-1027 37 0
-1027 70 0
1027 -23 -37 -70 0
-1026 1027 0
-1027 1026 0
-1028 45 0
-1028 62 0
1028 -45 -62 0
-1029 37 0
-1029 70 0
1029 -37 -70 0
-1028 1029 0
-1029 1028 0
-1030 49 0
-1030 52 0
1030 -49 -52 0
-1031 45 0
-1031 63 0
1031 -45 -63 0
-1032 37 0
-1032 74 0
1032 -37 -74 0
-1033 24 0
-1033 37 0
-1033 70 0
1033 -24 -37 -70 0
-1030 1031 1032 1033 0
-1031 1030 1032 1033 0
-1032 1030 1031 1033 0
-1033 1030 1031 1032 0
-1034 23 0
-1034 47 0
-1034 52 0
1034 -23 -47 -52 0
-1035 23 0
-1035 45 0
-1035 55 0
1035 -23 -45 -55 0
-1036 23 0
-1036 37 0
-1036 71 0
1036 -23 -37 -71 0
-1037 16 0
-1037 45 0
-1037 61 0
1037 -16 -45 -61 0
-1034 1035 1036 1037 0
-1035 1034 1036 1037 0
-1036 1034 1035 1037 0
-1037 1034 1035 1036 0
-1038 47 0
-1038 52 0
1038 -47 -52 0
-1039 45 0
-1039 55 0
1039 -45 -55 0
-1040 37 0
-1040 71 0
1040 -37 -71 0
-1041 16 0
-1041 45 0
-1041 62 0
1041 -16 -45 -62 0
-1038 1039 1040 1041 0
-1039 1038 1040 1041 0
-1040 1038 1039 1041 0
-1041 1038 1039 1040 0
-1042 24 0
-1042 47 0
-1042 52 0
1042 -24 -47 -52 0
-1043 24 0
-1043 45 0
-1043 55 0
1043 -24 -45 -55 0
-1044 24 0
-1044 37 0
-1044 71 0
1044 -24 -37 -71 0
-1045 16 0
-1045 49 0
-1045 52 0
1045 -16 -49 -52 0
-1046 16 0
-1046 45 0
-1046 63 0
1046 -16 -45 -63 0
-1047 16 0
-1047 37 0
-1047 74 0
1047 -16 -37 -74 0
-1042 1043 1044 1045 1046 1047 0
-1043 1042 1044 1045 1046 1047 0
-1044 1042 1043 1045 1046 1047 0
-1045 1042 1043 1044 1046 1047 0
-1046 1042 1043 1044 1045 1047 0
-1047 1042 1043 1044 1045 1046 0
-1048 25 0
-1048 46 0
-1048 50 0
1048 -25 -46 -50 0
-1049 25 0
-1049 38 0
-1049 53 0
1049 -25 -38 -53 0
-1050 25 0
-1050 30 0
-1050 64 0
1050 -25 -30 -64 0
-1051 17 0
-1051 48 0
-1051 50 0
1051 -17 -48 -50 0
-1052 17 0
-1052 38 0
-1052 56 0
1052 -17 -38 -56 0
-1053 17 0
-1053 30 0
-1053 72 0
1053 -17 -30 -72 0
-1048 1049 1050 1051 1052 1053 0
-1049 1048 1050 1051 1052 1053 0
-1050 1048 1049 1051 1052 1053 0
-1051 1048 1049 1050 1052 1053 0
-1052 1048 1049 1050 1051 1053 0
-1053 1048 1049 1050 1051 1052 0
-1054 26 0
-1054 46 0
-1054 50 0
1054 -26 -46 -50 0
-1055 26 0
-1055 38 0
-1055 53 0
1055 -26 -38 -53 0
-1056 26 0
-1056 30 0
-1056 64 0
1056 -26 -30 -64 0
-1057 17 0
-1057 38 0
1057 -17 -38 0
-1054 1055 1056 1057 0
-1055 1054 1056 1057 0
-1056 1054 1055 1057 0
-1057 1054 1055 1056 0
-1058 27 0
-1058 46 0
-1058 50 0
1058 -27 -46 -50 0
-1059 27 0
-1059 38 0
-1059 53 0
1059 -27 -38 -53 0
-1060 27 0
-1060 30 0
-1060 64 0
1060 -27 -30 -64 0
-1061 17 0
-1061 38 0
-1061 57 0
1061 -17 -38 -57 0
-1058 1059 1060 1061 0
-1059 1058 1060 1061 0
-1060 1058 1059 1061 0
-1061 1058 1059 1060 0
-1062 25 0
-1062 30 0
1062 -25 -30 0
-1063 18 0
-1063 48 0
-1063 50 0
1063 -18 -48 -50 0
-1064 18 0
-1064 38 0
-1064 56 0
1064 -18 -38 -56 0
-1065 18 0
-1065 30 0
-1065 72 0
1065 -18 -30 -72 0
-1062 1063 1064 1065 0
-1063 1062 1064 1065 0
-1064 1062 1063 1065 0
-1065 1062 1063 1064 0
-1066 26 0
-1066 30 0
1066 -26 -30 0
-1067 18 0
-1067 38 0
1067 -18 -38 0
-1066 1067 0
-1067 1066 0
-1068 27 0
-1068 30 0
1068 -27 -30 0
-1069 18 0
-1069 38 0
-1069 57 0
1069 -18 -38 -57 0
-1068 1069 0
-1069 1068 0
-1070 25 0
-1070 30 0
-1070 65 0
1070 -25 -30 -65 0
-1071 19 0
-1071 48 0
-1071 50 0
1071 -19 -48 -50 0
-1072 19 0
-1072 38 0
-1072 56 0
1072 -19 -38 -56 0
-1073 19 0
-1073 30 0
-1073 72 0
1073 -19 -30 -72 0
-1070 1071 1072 1073 0
-1071 1070 1072 1073 0
-1072 1070 1071 1073 0
-1073 1070 1071 1072 0
-1074 26 0
-1074 30 0
-1074 65 0
1074 -26 -30 -65 0
-1075 19 0
-1075 38 0
1075 -19 -38 0
-1074 1075 0
-1075 1074 0
-1076 27 0
-1076 30 0
-1076 65 0
1076 -27 -30 -65 0
-1077 19 0
-1077 38 0
-1077 57 0
1077 -19 -38 -57 0
-1076 1077 0
-1077 1076 0
-1078 25 0
-1078 53 0
1078 -25 -53 0
-1079 25 0
-1079 30 0
-1079 66 0
1079 -25 -30 -66 0
-1080 17 0
-1080 56 0
1080 -17 -56 0
-1081 13 0
-1081 48 0
-1081 53 0
1081 -13 -48 -53 0
-1082 13 0
-1082 46 0
-1082 56 0
1082 -13 -46 -56 0
-1083 13 0
-1083 30 0
-1083 75 0
1083 -13 -30 -75 0
-1078 1079 1080 1081 1082 1083 0
-1079 1078 1080 1081 1082 1083 0
-1080 1078 1079 1081 1082 1083 0
-1081 1078 1079 1080 1082 1083 0
-1082 1078 1079 1080 1081 1083 0
-1083 1078 1079 1080 1081 1082 0
-1084 26 0
-1084 53 0
1084 -26 -53 0
-1085 26 0
-1085 30 0
-1085 66 0
1085 -26 -30 -66 0
-1086 17 0
1086 -17 0
-1087 17 0
-1087 30 0
-1087 73 0
1087 -17 -30 -73 0
-1088 13 0
-1088 46 0
1088 -13 -46 0
-1084 1085 1086 1087 1088 0
-1085 1084 1086 1087 1088 0
-1086 1084 1085 1087 1088 0
-1087 1084 1085 1086 1088 0
-1088 1084 1085 1086 1087 0
-1089 27 0
-1089 53 0
1089 -27 -53 0
-1090 27 0
-1090 30 0
-1090 66 0
1090 -27 -30 -66 0
-1091 17 0
-1091 57 0
1091 -17 -57 0
-1092 13 0
-1092 46 0
-1092 57 0
1092 -13 -46 -57 0
-1089 1090 1091 1092 0
-1090 1089 1091 1092 0
-1091 1089 1090 1092 0
-1092 1089 1090 1091 0
-1093 25 0
-1093 30 0
-1093 67 0
1093 -25 -30 -67 0
-1094 18 0
-1094 56 0
1094 -18 -56 0
-1093 1094 0
-1094 1093 0
-1095 26 0
-1095 30 0
-1095 67 0
1095 -26 -30 -67 0
-1096 18 0
1096 -18 0
-1097 18 0
-1097 30 0
-1097 73 0
1097 -18 -30 -73 0
-1098 13 0
-1098 30 0
-1098 76 0
1098 -13 -30 -76 0
-1095 1096 1097 1098 0
-1096 1095 1097 1098 0
-1097 1095 1096 1098 0
-1098 1095 1096 1097 0
-1099 27 0
-1099 30 0
-1099 67 0
1099 -27 -30 -67 0
-1100 18 0
-1100 57 0
1100 -18 -57 0
-1099 1100 0
-1100 1099 0
-1101 25 0
-1101 30 0
-1101 68 0
1101 -25 -30 -68 0
-1102 19 0
-1102 56 0
1102 -19 -56 0
-1101 1102 0
-1102 1101 0
-1103 26 0
-1103 30 0
-1103 68 0
1103 -26 -30 -68 0
-1104 19 0
1104 -19 0
-1105 19 0
-1105 30 0
-1105 73 0
1105 -19 -30 -73 0
-1103 1104 1105 0
-1104 1103 1105 0
-1105 1103 1104 0
-1106 27 0
-1106 30 0
-1106 68 0
1106 -27 -30 -68 0
-1107 19 0
-1107 57 0
1107 -19 -57 0
-1108 13 0
-1108 30 0
-1108 77 0
1108 -13 -30 -77 0
-1106 1107 1108 0
-1107 1106 1108 0
-1108 1106 1107 0
-1109 25 0
-1109 39 0
-1109 53 0
1109 -25 -39 -53 0
-1110 25 0
-1110 30 0
-1110 69 0
1110 -25 -30 -69 0
-1111 17 0
-1111 39 0
-1111 56 0
1111 -17 -39 -56 0
-1109 1110 1111 0
-1110 1109 1111 0
-1111 1109 1110 0
-1112 26 0
-1112 39 0
-1112 53 0
1112 -26 -39 -53 0
-1113 26 0
-1113 30 0
-1113 69 0
1113 -26 -30 -69 0
-1114 17 0
-1114 39 0
1114 -17 -39 0
-1112 1113 1114 0
-1113 1112 1114 0
-1114 1112 1113 0
-1115 27 0
-1115 39 0
-1115 53 0
1115 -27 -39 -53 0
-1116 27 0
-1116 30 0
-1116 69 0
1116 -27 -30 -69 0
-1117 17 0
-1117 39 0
-1117 57 0
1117 -17 -39 -57 0
-1118 17 0
-1118 30 0
-1118 74 0
1118 -17 -30 -74 0
-1115 1116 1117 1118 0
-1116 1115 1117 1118 0
-1117 1115 1116 1118 0
-1118 1115 1116 1117 0
-1119 25 0
-1119 30 0
-1119 70 0
1119 -25 -30 -70 0
-1120 18 0
-1120 39 0
-1120 56 0
1120 -18 -39 -56 0
-1119 1120 0
-1120 1119 0
-1121 26 0
-1121 30 0
-1121 70 0
1121 -26 -30 -70 0
-1122 18 0
-1122 39 0
1122 -18 -39 0
-1121 1122 0
-1122 1121 0
-1123 27 0
-1123 30 0
-1123 70 0
1123 -27 -30 -70 0
-1124 18 0
-1124 39 0
-1124 57 0
1124 -18 -39 -57 0
-1125 18 0
-1125 30 0
-1125 74 0
1125 -18 -30 -74 0
-1123 1124 1125 0
-1124 1123 1125 0
-1125 1123 1124 0
-1126 25 0
-1126 30 0
-1126 71 0
1126 -25 -30 -71 0
-1127 19 0
-1127 39 0
-1127 56 0
1127 -19 -39 -56 0
-1126 1127 0
-1127 1126 0
-1128 26 0
-1128 30 0
-1128 71 0
1128 -26 -30 -71 0
-1129 19 0
-1129 39 0
1129 -19 -39 0
-1128 1129 0
-1129 1128 0
-1130 27 0
-1130 30 0
-1130 71 0
1130 -27 -30 -71 0
-1131 19 0
-1131 39 0
-1131 57 0
1131 -19 -39 -57 0
-1132 19 0
-1132 30 0
-1132 74 0
1132 -19 -30 -74 0
-1130 1131 1132 0
-1131 1130 1132 0
-1132 1130 1131 0
-1133 25 0
-1133 64 0
1133 -25 -64 0
-1134 17 0
-1134 72 0
1134 -17 -72 0
-1135 17 0
-1135 38 0
-1135 58 0
1135 -17 -38 -58 0
-1136 10 0
-1136 48 0
-1136 64 0
1136 -10 -48 -64 0
-1137 10 0
-1137 46 0
-1137 72 0
1137 -10 -46 -72 0
-1138 10 0
-1138 38 0
-1138 75 0
1138 -10 -38 -75 0
-1133 1134 1135 1136 1137 1138 0
-1134 1133 1135 1136 1137 1138 0
-1135 1133 1134 1136 1137 1138 0
-1136 1133 1134 1135 1137 1138 0
-1137 1133 1134 1135 1136 1138 0
-1138 1133 1134 1135 1136 1137 0
-1139 26 0
-1139 64 0
1139 -26 -64 0
-1140 17 0
-1140 38 0
-1140 59 0
1140 -17 -38 -59 0
-1139 1140 0
-1140 1139 0
-1141 27 0
-1141 64 0
1141 -27 -64 0
-1142 17 0
-1142 38 0
-1142 60 0
1142 -17 -38 -60 0
-1141 1142 0
-1142 1141 0
-1143 25 0
1143 -25 0
-1144 25 0
-1144 38 0
-1144 54 0
1144 -25 -38 -54 0
-1145 18 0
-1145 72 0
1145 -18 -72 0
-1146 18 0
-1146 38 0
-1146 58 0
1146 -18 -38 -58 0
-1147 10 0
-1147 48 0
1147 -10 -48 0
-1143 1144 1145 1146 1147 0
-1144 1143 1145 1146 1147 0
-1145 1143 1144 1146 1147 0
-1146 1143 1144 1145 1147 0
-1147 1143 1144 1145 1146 0
-1148 26 0
1148 -26 0
-1149 26 0
-1149 38 0
-1149 54 0
1149 -26 -38 -54 0
-1150 18 0
-1150 38 0
-1150 59 0
1150 -18 -38 -59 0
-1151 10 0
-1151 38 0
-1151 76 0
1151 -10 -38 -76 0
-1148 1149 1150 1151 0
-1149 1148 1150 1151 0
-1150 1148 1149 1151 0
-1151 1148 1149 1150 0
-1152 27 0
1152 -27 0
-1153 27 0
-1153 38 0
-1153 54 0
1153 -27 -38 -54 0
-1154 18 0
-1154 38 0
-1154 60 0
1154 -18 -38 -60 0
-1152 1153 1154 0
-1153 1152 1154 0
-1154 1152 1153 0
-1155 25 0
-1155 65 0
1155 -25 -65 0
-1156 19 0
-1156 72 0
1156 -19 -72 0
-1157 19 0
-1157 38 0
-1157 58 0
1157 -19 -38 -58 0
-1158 10 0
-1158 48 0
-1158 65 0
1158 -10 -48 -65 0
-1155 1156 1157 1158 0
-1156 1155 1157 1158 0
-1157 1155 1156 1158 0
-1158 1155 1156 1157 0
-1159 26 0
-1159 65 0
1159 -26 -65 0
-1160 19 0
-1160 38 0
-1160 59 0
1160 -19 -38 -59 0
-1159 1160 0
-1160 1159 0
-1161 27 0
-1161 65 0
1161 -27 -65 0
-1162 19 0
-1162 38 0
-1162 60 0
1162 -19 -38 -60 0
-1163 10 0
-1163 38 0
-1163 77 0
1163 -10 -38 -77 0
-1161 1162 1163 0
-1162 1161 1163 0
-1163 1161 1162 0
-1164 25 0
-1164 66 0
1164 -25 -66 0
-1165 25 0
-1165 46 0
-1165 51 0
1165 -25 -46 -51 0
-1166 17 0
-1166 58 0
1166 -17 -58 0
-1167 17 0
-1167 48 0
-1167 51 0
1167 -17 -48 -51 0
-1168 13 0
-1168 75 0
1168 -13 -75 0
-1169 13 0
-1169 46 0
-1169 58 0
1169 -13 -46 -58 0
-1170 10 0
-1170 75 0
1170 -10 -75 0
-1171 10 0
-1171 48 0
-1171 66 0
1171 -10 -48 -66 0
-1164 1165 1166 1167 1168 1169 1170 1171 0
-1165 1164 1166 1167 1168 1169 1170 1171 0
-1166 1164 1165 1167 1168 1169 1170 1171 0
-1167 1164 1165 1166 1168 1169 1170 1171 0
-1168 1164 1165 1166 1167 1169 1170 1171 0
-1169 1164 1165 1166 1167 1168 1170 1171 0
-1170 1164 1165 1166 1167 1168 1169 1171 0
-1171 1164 1165 1166 1167 1168 1169 1170 0
-1172 26 0
-1172 66 0
1172 -26 -66 0
-1173 26 0
-1173 46 0
-1173 51 0
1173 -26 -46 -51 0
-1174 17 0
-1174 73 0
1174 -17 -73 0
-1175 17 0
-1175 59 0
1175 -17 -59 0
-1176 13 0
-1176 46 0
-1176 59 0
1176 -13 -46 -59 0
-1177 10 0
-1177 46 0
-1177 73 0
1177 -10 -46 -73 0
-1172 1173 1174 1175 1176 1177 0
-1173 1172 1174 1175 1176 1177 0
-1174 1172 1173 1175 1176 1177 0
-1175 1172 1173 1174 1176 1177 0
-1176 1172 1173 1174 1175 1177 0
-1177 1172 1173 1174 1175 1176 0
-1178 27 0
-1178 66 0
1178 -27 -66 0
-1179 27 0
-1179 46 0
-1179 51 0
1179 -27 -46 -51 0
-1180 17 0
-1180 60 0
1180 -17 -60 0
-1181 13 0
-1181 46 0
-1181 60 0
1181 -13 -46 -60 0
-1178 1179 1180 1181 0
-1179 1178 1180 1181 0
-1180 1178 1179 1181 0
-1181 1178 1179 1180 0
-1182 25 0
-1182 67 0
1182 -25 -67 0
-1183 25 0
-1183 54 0
1183 -25 -54 0
-1184 18 0
-1184 58 0
1184 -18 -58 0
-1185 18 0
-1185 48 0
-1185 51 0
1185 -18 -48 -51 0
-1186 13 0
-1186 48 0
-1186 54 0
1186 -13 -48 -54 0
-1187 10 0
-1187 48 0
-1187 67 0
1187 -10 -48 -67 0
-1182 1183 1184 1185 1186 1187 0
-1183 1182 1184 1185 1186 1187 0
-1184 1182 1183 1185 1186 1187 0
-1185 1182 1183 1184 1186 1187 0
-1186 1182 1183 1184 1185 1187 0
-1187 1182 1183 1184 1185 1186 0
-1188 26 0
-1188 67 0
1188 -26 -67 0
-1189 26 0
-1189 54 0
1189 -26 -54 0
-1190 18 0
-1190 73 0
1190 -18 -73 0
-1191 18 0
-1191 59 0
1191 -18 -59 0
-1192 13 0
-1192 76 0
1192 -13 -76 0
-1193 10 0
-1193 76 0
1193 -10 -76 0
-1188 1189 1190 1191 1192 1193 0
-1189 1188 1190 1191 1192 1193 0
-1190 1188 1189 1191 1192 1193 0
-1191 1188 1189 1190 1192 1193 0
-1192 1188 1189 1190 1191 1193 0
-1193 1188 1189 1190 1191 1192 0
-1194 27 0
-1194 67 0
1194 -27 -67 0
-1195 27 0
-1195 54 0
1195 -27 -54 0
-1196 18 0
-1196 60 0
1196 -18 -60 0
-1194 1195 1196 0
-1195 1194 1196 0
-1196 1194 1195 0
-1197 25 0
-1197 68 0
1197 -25 -68 0
-1198 19 0
-1198 58 0
1198 -19 -58 0
-1199 19 0
-1199 48 0
-1199 51 0
1199 -19 -48 -51 0
-1200 10 0
-1200 48 0
-1200 68 0
1200 -10 -48 -68 0
-1197 1198 1199 1200 0
-1198 1197 1199 1200 0
-1199 1197 1198 1200 0
-1200 1197 1198 1199 0
-1201 26 0
-1201 68 0
1201 -26 -68 0
-1202 19 0
-1202 73 0
1202 -19 -73 0
-1203 19 0
-1203 59 0
1203 -19 -59 0
-1201 1202 1203 0
-1202 1201 1203 0
-1203 1201 1202 0
-1204 27 0
-1204 68 0
1204 -27 -68 0
-1205 19 0
-1205 60 0
1205 -19 -60 0
-1206 13 0
-1206 77 0
1206 -13 -77 0
-1207 10 0
-1207 77 0
1207 -10 -77 0
-1204 1205 1206 1207 0
-1205 1204 1206 1207 0
-1206 1204 1205 1207 0
-1207 1204 1205 1206 0
-1208 25 0
-1208 69 0
1208 -25 -69 0
-1209 17 0
-1209 39 0
-1209 58 0
1209 -17 -39 -58 0
-1210 10 0
-1210 48 0
-1210 69 0
1210 -10 -48 -69 0
-1211 10 0
-1211 39 0
-1211 75 0
1211 -10 -39 -75 0
-1208 1209 1210 1211 0
-1209 1208 1210 1211 0
-1210 1208 1209 1211 0
-1211 1208 1209 1210 0
-1212 26 0
-1212 69 0
1212 -26 -69 0
-1213 17 0
-1213 39 0
-1213 59 0
1213 -17 -39 -59 0
-1212 1213 0
-1213 1212 0
-1214 27 0
-1214 69 0
1214 -27 -69 0
-1215 17 0
-1215 74 0
1215 -17 -74 0
-1216 17 0
-1216 39 0
-1216 60 0
1216 -17 -39 -60 0
-1217 10 0
-1217 46 0
-1217 74 0
1217 -10 -46 -74 0
-1214 1215 1216 1217 0
-1215 1214 1216 1217 0
-1216 1214 1215 1217 0
-1217 1214 1215 1216 0
-1218 25 0
-1218 70 0
1218 -25 -70 0
-1219 25 0
-1219 39 0
-1219 54 0
1219 -25 -39 -54 0
-1220 18 0
-1220 39 0
-1220 58 0
1220 -18 -39 -58 0
-1221 10 0
-1221 48 0
-1221 70 0
1221 -10 -48 -70 0
-1218 1219 1220 1221 0
-1219 1218 1220 1221 0
-1220 1218 1219 1221 0
-1221 1218 1219 1220 0
-1222 26 0
-1222 70 0
1222 -26 -70 0
-1223 26 0
-1223 39 0
-1223 54 0
1223 -26 -39 -54 0
-1224 18 0
-1224 39 0
-1224 59 0
1224 -18 -39 -59 0
-1225 10 0
-1225 39 0
-1225 76 0
1225 -10 -39 -76 0
-1222 1223 1224 1225 0
-1223 1222 1224 1225 0
-1224 1222 1223 1225 0
-1225 1222 1223 1224 0
-1226 27 0
-1226 70 0
1226 -27 -70 0
-1227 27 0
-1227 39 0
-1227 54 0
1227 -27 -39 -54 0
-1228 18 0
-1228 74 0
1228 -18 -74 0
-1229 18 0
-1229 39 0
-1229 60 0
1229 -18 -39 -60 0
-1226 1227 1228 1229 0
-1227 1226 1228 1229 0
-1228 1226 1227 1229 0
-1229 1226 1227 1228 0
-1230 25 0
-1230 71 0
1230 -25 -71 0
-1231 19 0
-1231 39 0
-1231 58 0
1231 -19 -39 -58 0
-1232 10 0
-1232 48 0
-1232 71 0
1232 -10 -48 -71 0
-1230 1231 1232 0
-1231 1230 1232 0
-1232 1230 1231 0
-1233 26 0
-1233 71 0
1233 -26 -71 0
-1234 19 0
-1234 39 0
-1234 59 0
1234 -19 -39 -59 0
-1233 1234 0
-1234 1233 0
-1235 27 0
-1235 71 0
1235 -27 -71 0
-1236 19 0
-1236 74 0
1236 -19 -74 0
-1237 19 0
-1237 39 0
-1237 60 0
1237 -19 -39 -60 0
-1238 10 0
-1238 39 0
-1238 77 0
1238 -10 -39 -77 0
-1235 1236 1237 1238 0
-1236 1235 1237 1238 0
-1237 1235 1236 1238 0
-1238 1235 1236 1237 0
-1239 25 0
-1239 31 0
-1239 64 0
1239 -25 -31 -64 0
-1240 17 0
-1240 38 0
-1240 61 0
1240 -17 -38 -61 0
-1241 17 0
-1241 31 0
-1241 72 0
1241 -17 -31 -72 0
-1239 1240 1241 0
-1240 1239 1241 0
-1241 1239 1240 0
-1242 26 0
-1242 31 0
-1242 64 0
1242 -26 -31 -64 0
-1243 17 0
-1243 38 0
-1243 62 0
1243 -17 -38 -62 0
-1242 1243 0
-1243 1242 0
-1244 27 0
-1244 31 0
-1244 64 0
1244 -27 -31 -64 0
-1245 17 0
-1245 38 0
-1245 63 0
1245 -17 -38 -63 0
-1244 1245 0
-1245 1244 0
-1246 25 0
-1246 31 0
1246 -25 -31 0
-1247 18 0
-1247 38 0
-1247 61 0
1247 -18 -38 -61 0
-1248 18 0
-1248 31 0
-1248 72 0
1248 -18 -31 -72 0
-1246 1247 1248 0
-1247 1246 1248 0
-1248 1246 1247 0
-1249 26 0
-1249 31 0
1249 -26 -31 0
-1250 18 0
-1250 38 0
-1250 62 0
1250 -18 -38 -62 0
-1249 1250 0
-1250 1249 0
-1251 27 0
-1251 31 0
1251 -27 -31 0
-1252 18 0
-1252 38 0
-1252 63 0
1252 -18 -38 -63 0
-1251 1252 0
-1252 1251 0
-1253 25 0
-1253 38 0
-1253 55 0
1253 -25 -38 -55 0
-1254 25 0
-1254 31 0
-1254 65 0
1254 -25 -31 -65 0
-1255 19 0
-1255 38 0
-1255 61 0
1255 -19 -38 -61 0
-1256 19 0
-1256 31 0
-1256 72 0
1256 -19 -31 -72 0
-1253 1254 1255 1256 0
-1254 1253 1255 1256 0
-1255 1253 1254 1256 0
-1256 1253 1254 1255 0
-1257 26 0
-1257 38 0
-1257 55 0
1257 -26 -38 -55 0
-1258 26 0
-1258 31 0
-1258 65 0
1258 -26 -31 -65 0
-1259 19 0
-1259 38 0
-1259 62 0
1259 -19 -38 -62 0
-1257 1258 1259 0
-1258 1257 1259 0
-1259 1257 1258 0
-1260 27 0
-1260 38 0
-1260 55 0
1260 -27 -38 -55 0
-1261 27 0
-1261 31 0
-1261 65 0
1261 -27 -31 -65 0
-1262 19 0
-1262 38 0
-1262 63 0
1262 -19 -38 -63 0
-1260 1261 1262 0
-1261 1260 1262 0
-1262 1260 1261 0
-1263 25 0
-1263 31 0
-1263 66 0
1263 -25 -31 -66 0
-1264 17 0
-1264 61 0
1264 -17 -61 0
-1265 13 0
-1265 46 0
-1265 61 0
1265 -13 -46 -61 0
-1266 13 0
-1266 31 0
-1266 75 0
1266 -13 -31 -75 0
-1263 1264 1265 1266 0
-1264 1263 1265 1266 0
-1265 1263 1264 1266 0
-1266 1263 1264 1265 0
-1267 26 0
-1267 31 0
-1267 66 0
1267 -26 -31 -66 0
-1268 17 0
-1268 62 0
1268 -17 -62 0
-1269 17 0
-1269 31 0
-1269 73 0
1269 -17 -31 -73 0
-1270 13 0
-1270 46 0
-1270 62 0
1270 -13 -46 -62 0
-1267 1268 1269 1270 0
-1268 1267 1269 1270 0
-1269 1267 1268 1270 0
-1270 1267 1268 1269 0
-1271 27 0
-1271 31 0
-1271 66 0
1271 -27 -31 -66 0
-1272 17 0
-1272 63 0
1272 -17 -63 0
-1273 13 0
-1273 46 0
-1273 63 0
1273 -13 -46 -63 0
-1271 1272 1273 0
-1272 1271 1273 0
-1273 1271 1272 0
-1274 25 0
-1274 31 0
-1274 67 0
1274 -25 -31 -67 0
-1275 18 0
-1275 61 0
1275 -18 -61 0
-1274 1275 0
-1275 1274 0
-1276 26 0
-1276 31 0
-1276 67 0
1276 -26 -31 -67 0
-1277 18 0
-1277 62 0
1277 -18 -62 0
-1278 18 0
-1278 31 0
-1278 73 0
1278 -18 -31 -73 0
-1279 13 0
-1279 31 0
-1279 76 0
1279 -13 -31 -76 0
-1276 1277 1278 1279 0
-1277 1276 1278 1279 0
-1278 1276 1277 1279 0
-1279 1276 1277 1278 0
-1280 27 0
-1280 31 0
-1280 67 0
1280 -27 -31 -67 0
-1281 18 0
-1281 63 0
1281 -18 -63 0
-1280 1281 0
-1281 1280 0
-1282 25 0
-1282 55 0
1282 -25 -55 0
-1283 25 0
-1283 31 0
-1283 68 0
1283 -25 -31 -68 0
-1284 19 0
-1284 61 0
1284 -19 -61 0
-1285 13 0
-1285 48 0
-1285 55 0
1285 -13 -48 -55 0
-1282 1283 1284 1285 0
-1283 1282 1284 1285 0
-1284 1282 1283 1285 0
-1285 1282 1283 1284 0
-1286 26 0
-1286 55 0
1286 -26 -55 0
-1287 26 0
-1287 31 0
-1287 68 0
1287 -26 -31 -68 0
-1288 19 0
-1288 62 0
1288 -19 -62 0
-1289 19 0
-1289 31 0
-1289 73 0
1289 -19 -31 -73 0
-1286 1287 1288 1289 0
-1287 1286 1288 1289 0
-1288 1286 1287 1289 0
-1289 1286 1287 1288 0
-1290 27 0
-1290 55 0
1290 -27 -55 0
-1291 27 0
-1291 31 0
-1291 68 0
1291 -27 -31 -68 0
-1292 19 0
-1292 63 0
1292 -19 -63 0
-1293 13 0
-1293 31 0
-1293 77 0
1293 -13 -31 -77 0
-1290 1291 1292 1293 0
-1291 1290 1292 1293 0
-1292 1290 1291 1293 0
-1293 1290 1291 1292 0
-1294 25 0
-1294 46 0
-1294 52 0
1294 -25 -46 -52 0
-1295 25 0
-1295 31 0
-1295 69 0
1295 -25 -31 -69 0
-1296 17 0
-1296 48 0
-1296 52 0
1296 -17 -48 -52 0
-1297 17 0
-1297 39 0
-1297 61 0
1297 -17 -39 -61 0
-1294 1295 1296 1297 0
-1295 1294 1296 1297 0
-1296 1294 1295 1297 0
-1297 1294 1295 1296 0
-1298 26 0
-1298 46 0
-1298 52 0
1298 -26 -46 -52 0
-1299 26 0
-1299 31 0
-1299 69 0
1299 -26 -31 -69 0
-1300 17 0
-1300 39 0
-1300 62 0
1300 -17 -39 -62 0
-1298 1299 1300 0
-1299 1298 1300 0
-1300 1298 1299 0
-1301 27 0
-1301 46 0
-1301 52 0
1301 -27 -46 -52 0
-1302 27 0
-1302 31 0
-1302 69 0
1302 -27 -31 -69 0
-1303 17 0
-1303 39 0
-1303 63 0
1303 -17 -39 -63 0
-1304 17 0
-1304 31 0
-1304 74 0
1304 -17 -31 -74 0
-1301 1302 1303 1304 0
-1302 1301 1303 1304 0
-1303 1301 1302 1304 0
-1304 1301 1302 1303 0
-1305 25 0
-1305 31 0
-1305 70 0
1305 -25 -31 -70 0
-1306 18 0
-1306 48 0
-1306 52 0
1306 -18 -48 -52 0
-1307 18 0
-1307 39 0
-1307 61 0
1307 -18 -39 -61 0
-1305 1306 1307 0
-1306 1305 1307 0
-1307 1305 1306 0
-1308 26 0
-1308 31 0
-1308 70 0
1308 -26 -31 -70 0
-1309 18 0
-1309 39 0
-1309 62 0
1309 -18 -39 -62 0
-1308 1309 0
-1309 1308 0
-1310 27 0
-1310 31 0
-1310 70 0
1310 -27 -31 -70 0
-1311 18 0
-1311 39 0
-1311 63 0
1311 -18 -39 -63 0
-1312 18 0
-1312 31 0
-1312 74 0
1312 -18 -31 -74 0
-1310 1311 1312 0
-1311 1310 1312 0
-1312 1310 1311 0
-1313 25 0
-1313 39 0
-1313 55 0
1313 -25 -39 -55 0
-1314 25 0
-1314 31 0
-1314 71 0
1314 -25 -31 -71 0
-1315 19 0
-1315 48 0
-1315 52 0
1315 -19 -48 -52 0
-1316 19 0
-1316 39 0
-1316 61 0
1316 -19 -39 -61 0
-1313 1314 1315 1316 0
-1314 1313 1315 1316 0
-1315 1313 1314 1316 0
-1316 1313 1314 1315 0
-1317 26 0
-1317 39 0
-1317 55 0
1317 -26 -39 -55 0
-1318 26 0
-1318 31 0
-1318 71 0
1318 -26 -31 -71 0
-1319 19 0
-1319 39 0
-1319 62 0
1319 -19 -39 -62 0
-1317 1318 1319 0
-1318 1317 1319 0
-1319 1317 1318 0
-1320 27 0
-1320 39 0
-1320 55 0
1320 -27 -39 -55 0
-1321 27 0
-1321 31 0
-1321 71 0
1321 -27 -31 -71 0
-1322 19 0
-1322 39 0
-1322 63 0
1322 -19 -39 -63 0
-1323 19 0
-1323 31 0
-1323 74 0
1323 -19 -31 -74 0
-1320 1321 1322 1323 0
-1321 1320 1322 1323 0
-1322 1320 1321 1323 0
-1323 1320 1321 1322 0
-1324 25 0
-1324 40 0
-1324 53 0
1324 -25 -40 -53 0
-1325 25 0
-1325 32 0
-1325 64 0
1325 -25 -32 -64 0
-1326 17 0
-1326 40 0
-1326 56 0
1326 -17 -40 -56 0
-1327 17 0
-1327 32 0
-1327 72 0
1327 -17 -32 -72 0
-1328 7 0
-1328 56 0
-1328 64 0
1328 -7 -56 -64 0
-1329 7 0
-1329 53 0
-1329 72 0
1329 -7 -53 -72 0
-1330 7 0
-1330 50 0
-1330 75 0
1330 -7 -50 -75 0
-1324 1325 1326 1327 1328 1329 1330 0
-1325 1324 1326 1327 1328 1329 1330 0
-1326 1324 1325 1327 1328 1329 1330 0
-1327 1324 1325 1326 1328 1329 1330 0
-1328 1324 1325 1326 1327 1329 1330 0
-1329 1324 1325 1326 1327 1328 1330 0
-1330 1324 1325 1326 1327 1328 1329 0
-1331 26 0
-1331 40 0
-1331 53 0
1331 -26 -40 -53 0
-1332 26 0
-1332 32 0
-1332 64 0
1332 -26 -32 -64 0
-1333 17 0
-1333 40 0
1333 -17 -40 0
-1334 7 0
-1334 64 0
1334 -7 -64 0
-1335 4 0
-1335 17 0
-1335 41 0
-1335 50 0
-1335 59 0
1335 -4 -17 -41 -50 -59 0
-1336 4 0
-1336 17 0
-1336 33 0
-1336 50 0
-1336 73 0
1336 -4 -17 -33 -50 -73 0
-1331 1332 1333 1334 1335 1336 0
-1332 1331 1333 1334 1335 1336 0
-1333 1331 1332 1334 1335 1336 0
-1334 1331 1332 1333 1335 1336 0
-1335 1331 1332 1333 1334 1336 0
-1336 1331 1332 1333 1334 1335 0
-1337 27 0
-1337 40 0
-1337 53 0
1337 -27 -40 -53 0
-1338 27 0
-1338 32 0
-1338 64 0
1338 -27 -32 -64 0
-1339 17 0
-1339 40 0
-1339 57 0
1339 -17 -40 -57 0
-1340 7 0
-1340 57 0
-1340 64 0
1340 -7 -57 -64 0
-1337 1338 1339 1340 0
-1338 1337 1339 1340 0
-1339 1337 1338 1340 0
-1340 1337 1338 1339 0
-1341 25 0
-1341 32 0
1341 -25 -32 0
-1342 18 0
-1342 40 0
-1342 56 0
1342 -18 -40 -56 0
-1343 18 0
-1343 32 0
-1343 72 0
1343 -18 -32 -72 0
-1344 7 0
-1344 56 0
1344 -7 -56 0
-1345 4 0
-1345 25 0
-1345 41 0
-1345 50 0
-1345 54 0
1345 -4 -25 -41 -50 -54 0
-1346 4 0
-1346 25 0
-1346 33 0
-1346 50 0
-1346 67 0
1346 -4 -25 -33 -50 -67 0
-1341 1342 1343 1344 1345 1346 0
-1342 1341 1343 1344 1345 1346 0
-1343 1341 1342 1344 1345 1346 0
-1344 1341 1342 1343 1345 1346 0
-1345 1341 1342 1343 1344 1346 0
-1346 1341 1342 1343 1344 1345 0
-1347 26 0
-1347 32 0
1347 -26 -32 0
-1348 18 0
-1348 40 0
1348 -18 -40 0
-1349 7 0
1349 -7 0
-1350 7 0
-1350 50 0
-1350 76 0
1350 -7 -50 -76 0
-1351 4 0
-1351 26 0
-1351 41 0
-1351 50 0
-1351 54 0
1351 -4 -26 -41 -50 -54 0
-1352 4 0
-1352 26 0
-1352 33 0
-1352 50 0
-1352 67 0
1352 -4 -26 -33 -50 -67 0
-1353 4 0
-1353 18 0
-1353 41 0
-1353 50 0
-1353 59 0
1353 -4 -18 -41 -50 -59 0
-1354 4 0
-1354 18 0
-1354 33 0
-1354 50 0
-1354 73 0
1354 -4 -18 -33 -50 -73 0
-1347 1348 1349 1350 1351 1352 1353 1354 0
-1348 1347 1349 1350 1351 1352 1353 1354 0
-1349 1347 1348 1350 1351 1352 1353 1354 0
-1350 1347 1348 1349 1351 1352 1353 1354 0
-1351 1347 1348 1349 1350 1352 1353 1354 0
-1352 1347 1348 1349 1350 1351 1353 1354 0
-1353 1347 1348 1349 1350 1351 1352 1354 0
-1354 1347 1348 1349 1350 1351 1352 1353 0
-1355 27 0
-1355 32 0
1355 -27 -32 0
-1356 18 0
-1356 40 0
-1356 57 0
1356 -18 -40 -57 0
-1357 7 0
-1357 57 0
1357 -7 -57 0
-1358 4 0
-1358 27 0
-1358 41 0
-1358 50 0
-1358 54 0
1358 -4 -27 -41 -50 -54 0
-1359 4 0
-1359 27 0
-1359 33 0
-1359 50 0
-1359 67 0
1359 -4 -27 -33 -50 -67 0
-1355 1356 1357 1358 1359 0
-1356 1355 1357 1358 1359 0
-1357 1355 1356 1358 1359 0
-1358 1355 1356 1357 1359 0
-1359 1355 1356 1357 1358 0
-1360 25 0
-1360 32 0
-1360 65 0
1360 -25 -32 -65 0
-1361 19 0
-1361 40 0
-1361 56 0
1361 -19 -40 -56 0
-1362 19 0
-1362 32 0
-1362 72 0
1362 -19 -32 -72 0
-1363 7 0
-1363 56 0
-1363 65 0
1363 -7 -56 -65 0
-1360 1361 1362 1363 0
-1361 1360 1362 1363 0
-1362 1360 1361 1363 0
-1363 1360 1361 1362 0
-1364 26 0
-1364 32 0
-1364 65 0
1364 -26 -32 -65 0
-1365 19 0
-1365 40 0
1365 -19 -40 0
-1366 7 0
-1366 65 0
1366 -7 -65 0
-1367 4 0
-1367 19 0
-1367 41 0
-1367 50 0
-1367 59 0
1367 -4 -19 -41 -50 -59 0
-1368 4 0
-1368 19 0
-1368 33 0
-1368 50 0
-1368 73 0
1368 -4 -19 -33 -50 -73 0
-1364 1365 1366 1367 1368 0
-1365 1364 1366 1367 1368 0
-1366 1364 1365 1367 1368 0
-1367 1364 1365 1366 1368 0
-1368 1364 1365 1366 1367 0
-1369 27 0
-1369 32 0
-1369 65 0
1369 -27 -32 -65 0
-1370 19 0
-1370 40 0
-1370 57 0
1370 -19 -40 -57 0
-1371 7 0
-1371 57 0
-1371 65 0
1371 -7 -57 -65 0
-1372 7 0
-1372 50 0
-1372 77 0
1372 -7 -50 -77 0
-1369 1370 1371 1372 0
-1370 1369 1371 1372 0
-1371 1369 1370 1372 0
-1372 1369 1370 1371 0
-1373 25 0
-1373 41 0
-1373 53 0
1373 -25 -41 -53 0
-1374 25 0
-1374 32 0
-1374 66 0
1374 -25 -32 -66 0
-1375 17 0
-1375 41 0
-1375 56 0
1375 -17 -41 -56 0
-1376 13 0
-1376 32 0
-1376 75 0
1376 -13 -32 -75 0
-1377 7 0
-1377 56 0
-1377 66 0
1377 -7 -56 -66 0
-1373 1374 1375 1376 1377 0
-1374 1373 1375 1376 1377 0
-1375 1373 1374 1376 1377 0
-1376 1373 1374 1375 1377 0
-1377 1373 1374 1375 1376 0
-1378 26 0
-1378 41 0
-1378 53 0
1378 -26 -41 -53 0
-1379 26 0
-1379 32 0
-1379 66 0
1379 -26 -32 -66 0
-1380 17 0
-1380 41 0
1380 -17 -41 0
-1381 17 0
-1381 32 0
-1381 73 0
1381 -17 -32 -73 0
-1382 7 0
-1382 66 0
1382 -7 -66 0
-1383 7 0
-1383 53 0
-1383 73 0
1383 -7 -53 -73 0
-1384 4 0
-1384 13 0
-1384 41 0
-1384 53 0
-1384 59 0
1384 -4 -13 -41 -53 -59 0
-1385 4 0
-1385 13 0
-1385 33 0
-1385 53 0
-1385 73 0
1385 -4 -13 -33 -53 -73 0
-1378 1379 1380 1381 1382 1383 1384 1385 0
-1379 1378 1380 1381 1382 1383 1384 1385 0
-1380 1378 1379 1381 1382 1383 1384 1385 0
-1381 1378 1379 1380 1382 1383 1384 1385 0
-1382 1378 1379 1380 1381 1383 1384 1385 0
-1383 1378 1379 1380 1381 1382 1384 1385 0
-1384 1378 1379 1380 1381 1382 1383 1385 0
-1385 1378 1379 1380 1381 1382 1383 1384 0
-1386 27 0
-1386 41 0
-1386 53 0
1386 -27 -41 -53 0
-1387 27 0
-1387 32 0
-1387 66 0
1387 -27 -32 -66 0
-1388 17 0
-1388 41 0
-1388 57 0
1388 -17 -41 -57 0
-1389 7 0
-1389 57 0
-1389 66 0
1389 -7 -57 -66 0
-1386 1387 1388 1389 0
-1387 1386 1388 1389 0
-1388 1386 1387 1389 0
-1389 1386 1387 1388 0
-1390 25 0
-1390 32 0
-1390 67 0
1390 -25 -32 -67 0
-1391 18 0
-1391 41 0
-1391 56 0
1391 -18 -41 -56 0
-1392 7 0
-1392 56 0
-1392 67 0
1392 -7 -56 -67 0
-1393 4 0
-1393 13 0
-1393 41 0
-1393 54 0
-1393 56 0
1393 -4 -13 -41 -54 -56 0
-1394 4 0
-1394 13 0
-1394 33 0
-1394 56 0
-1394 67 0
1394 -4 -13 -33 -56 -67 0
-1390 1391 1392 1393 1394 0
-1391 1390 1392 1393 1394 0
-1392 1390 1391 1393 1394 0
-1393 1390 1391 1392 1394 0
-1394 1390 1391 1392 1393 0
-1395 26 0
-1395 32 0
-1395 67 0
1395 -26 -32 -67 0
-1396 18 0
-1396 41 0
1396 -18 -41 0
-1397 18 0
-1397 32 0
-1397 73 0
1397 -18 -32 -73 0
-1398 13 0
-1398 32 0
-1398 76 0
1398 -13 -32 -76 0
-1399 7 0
-1399 67 0
1399 -7 -67 0
-1400 4 0
-1400 13 0
-1400 41 0
-1400 54 0
1400 -4 -13 -41 -54 0
-1401 4 0
-1401 13 0
-1401 33 0
-1401 67 0
1401 -4 -13 -33 -67 0
-1395 1396 1397 1398 1399 1400 1401 0
-1396 1395 1397 1398 1399 1400 1401 0
-1397 1395 1396 1398 1399 1400 1401 0
-1398 1395 1396 1397 1399 1400 1401 0
-1399 1395 1396 1397 1398 1400 1401 0
-1400 1395 1396 1397 1398 1399 1401 0
-1401 1395 1396 1397 1398 1399 1400 0
-1402 27 0
-1402 32 0
-1402 67 0
1402 -27 -32 -67 0
-1403 18 0
-1403 41 0
-1403 57 0
1403 -18 -41 -57 0
-1404 7 0
-1404 57 0
-1404 67 0
1404 -7 -57 -67 0
-1405 4 0
-1405 13 0
-1405 41 0
-1405 54 0
-1405 57 0
1405 -4 -13 -41 -54 -57 0
-1406 4 0
-1406 13 0
-1406 33 0
-1406 57 0
-1406 67 0
1406 -4 -13 -33 -57 -67 0
-1402 1403 1404 1405 1406 0
-1403 1402 1404 1405 1406 0
-1404 1402 1403 1405 1406 0
-1405 1402 1403 1404 1406 0
-1406 1402 1403 1404 1405 0
-1407 25 0
-1407 32 0
-1407 68 0
1407 -25 -32 -68 0
-1408 19 0
-1408 41 0
-1408 56 0
1408 -19 -41 -56 0
-1409 7 0
-1409 56 0
-1409 68 0
1409 -7 -56 -68 0
-1407 1408 1409 0
-1408 1407 1409 0
-1409 1407 1408 0
-1410 26 0
-1410 32 0
-1410 68 0
1410 -26 -32 -68 0
-1411 19 0
-1411 41 0
1411 -19 -41 0
-1412 19 0
-1412 32 0
-1412 73 0
1412 -19 -32 -73 0
-1413 7 0
-1413 68 0
1413 -7 -68 0
-1410 1411 1412 1413 0
-1411 1410 1412 1413 0
-1412 1410 1411 1413 0
-1413 1410 1411 1412 0
-1414 27 0
-1414 32 0
-1414 68 0
1414 -27 -32 -68 0
-1415 19 0
-1415 41 0
-1415 57 0
1415 -19 -41 -57 0
-1416 13 0
-1416 32 0
-1416 77 0
1416 -13 -32 -77 0
-1417 7 0
-1417 57 0
-1417 68 0
1417 -7 -57 -68 0
-1414 1415 1416 1417 0
-1415 1414 1416 1417 0
-1416 1414 1415 1417 0
-1417 1414 1415 1416 0
-1418 25 0
-1418 42 0
-1418 53 0
1418 -25 -42 -53 0
-1419 25 0
-1419 32 0
-1419 69 0
1419 -25 -32 -69 0
-1420 17 0
-1420 42 0
-1420 56 0
1420 -17 -42 -56 0
-1421 7 0
-1421 56 0
-1421 69 0
1421 -7 -56 -69 0
-1418 1419 1420 1421 0
-1419 1418 1420 1421 0
-1420 1418 1419 1421 0
-1421 1418 1419 1420 0
-1422 26 0
-1422 42 0
-1422 53 0
1422 -26 -42 -53 0
-1423 26 0
-1423 32 0
-1423 69 0
1423 -26 -32 -69 0
-1424 17 0
-1424 42 0
1424 -17 -42 0
-1425 7 0
-1425 69 0
1425 -7 -69 0
-1422 1423 1424 1425 0
-1423 1422 1424 1425 0
-1424 1422 1423 1425 0
-1425 1422 1423 1424 0
-1426 27 0
-1426 42 0
-1426 53 0
1426 -27 -42 -53 0
-1427 27 0
-1427 32 0
-1427 69 0
1427 -27 -32 -69 0
-1428 17 0
-1428 42 0
-1428 57 0
1428 -17 -42 -57 0
-1429 17 0
-1429 32 0
-1429 74 0
1429 -17 -32 -74 0
-1430 7 0
-1430 57 0
-1430 69 0
1430 -7 -57 -69 0
-1431 7 0
-1431 53 0
-1431 74 0
1431 -7 -53 -74 0
-1426 1427 1428 1429 1430 1431 0
-1427 1426 1428 1429 1430 1431 0
-1428 1426 1427 1429 1430 1431 0
-1429 1426 1427 1428 1430 1431 0
-1430 1426 1427 1428 1429 1431 0
-1431 1426 1427 1428 1429 1430 0
-1432 25 0
-1432 32 0
-1432 70 0
1432 -25 -32 -70 0
-1433 18 0
-1433 42 0
-1433 56 0
1433 -18 -42 -56 0
-1434 7 0
-1434 56 0
-1434 70 0
1434 -7 -56 -70 0
-1432 1433 1434 0
-1433 1432 1434 0
-1434 1432 1433 0
-1435 26 0
-1435 32 0
-1435 70 0
1435 -26 -32 -70 0
-1436 18 0
-1436 42 0
1436 -18 -42 0
-1437 7 0
-1437 70 0
1437 -7 -70 0
-1435 1436 1437 0
-1436 1435 1437 0
-1437 1435 1436 0
-1438 27 0
-1438 32 0
-1438 70 0
1438 -27 -32 -70 0
-1439 18 0
-1439 42 0
-1439 57 0
1439 -18 -42 -57 0
-1440 18 0
-1440 32 0
-1440 74 0
1440 -18 -32 -74 0
-1441 7 0
-1441 57 0
-1441 70 0
1441 -7 -57 -70 0
-1438 1439 1440 1441 0
-1439 1438 1440 1441 0
-1440 1438 1439 1441 0
-1441 1438 1439 1440 0
-1442 25 0
-1442 32 0
-1442 71 0
1442 -25 -32 -71 0
-1443 19 0
-1443 42 0
-1443 56 0
1443 -19 -42 -56 0
-1444 7 0
-1444 56 0
-1444 71 0
1444 -7 -56 -71 0
-1442 1443 1444 0
-1443 1442 1444 0
-1444 1442 1443 0
-1445 26 0
-1445 32 0
-1445 71 0
1445 -26 -32 -71 0
-1446 19 0
-1446 42 0
1446 -19 -42 0
-1447 7 0
-1447 71 0
1447 -7 -71 0
-1445 1446 1447 0
-1446 1445 1447 0
-1447 1445 1446 0
-1448 27 0
-1448 32 0
-1448 71 0
1448 -27 -32 -71 0
-1449 19 0
-1449 42 0
-1449 57 0
1449 -19 -42 -57 0
-1450 19 0
-1450 32 0
-1450 74 0
1450 -19 -32 -74 0
-1451 7 0
-1451 57 0
-1451 71 0
1451 -7 -57 -71 0
-1448 1449 1450 1451 0
-1449 1448 1450 1451 0
-1450 1448 1449 1451 0
-1451 1448 1449 1450 0
-1452 25 0
-1452 33 0
-1452 64 0
1452 -25 -33 -64 0
-1453 17 0
-1453 40 0
-1453 58 0
1453 -17 -40 -58 0
-1454 17 0
-1454 33 0
-1454 72 0
1454 -17 -33 -72 0
-1455 10 0
-1455 40 0
-1455 75 0
1455 -10 -40 -75 0
-1456 7 0
-1456 58 0
-1456 64 0
1456 -7 -58 -64 0
-1452 1453 1454 1455 1456 0
-1453 1452 1454 1455 1456 0
-1454 1452 1453 1455 1456 0
-1455 1452 1453 1454 1456 0
-1456 1452 1453 1454 1455 0
-1457 26 0
-1457 33 0
-1457 64 0
1457 -26 -33 -64 0
-1458 17 0
-1458 40 0
-1458 59 0
1458 -17 -40 -59 0
-1459 7 0
-1459 59 0
-1459 64 0
1459 -7 -59 -64 0
-1460 4 0
-1460 10 0
-1460 41 0
-1460 59 0
-1460 64 0
1460 -4 -10 -41 -59 -64 0
-1461 4 0
-1461 10 0
-1461 33 0
-1461 64 0
-1461 73 0
1461 -4 -10 -33 -64 -73 0
-1457 1458 1459 1460 1461 0
-1458 1457 1459 1460 1461 0
-1459 1457 1458 1460 1461 0
-1460 1457 1458 1459 1461 0
-1461 1457 1458 1459 1460 0
-1462 27 0
-1462 33 0
-1462 64 0
1462 -27 -33 -64 0
-1463 17 0
-1463 40 0
-1463 60 0
1463 -17 -40 -60 0
-1464 7 0
-1464 60 0
-1464 64 0
1464 -7 -60 -64 0
-1462 1463 1464 0
-1463 1462 1464 0
-1464 1462 1463 0
-1465 25 0
-1465 40 0
-1465 54 0
1465 -25 -40 -54 0
-1466 25 0
-1466 33 0
1466 -25 -33 0
-1467 18 0
-1467 40 0
-1467 58 0
1467 -18 -40 -58 0
-1468 18 0
-1468 33 0
-1468 72 0
1468 -18 -33 -72 0
-1469 7 0
-1469 58 0
1469 -7 -58 0
-1470 7 0
-1470 54 0
-1470 72 0
1470 -7 -54 -72 0
-1471 4 0
-1471 10 0
-1471 41 0
-1471 54 0
-1471 72 0
1471 -4 -10 -41 -54 -72 0
-1472 4 0
-1472 10 0
-1472 33 0
-1472 67 0
-1472 72 0
1472 -4 -10 -33 -67 -72 0
-1465 1466 1467 1468 1469 1470 1471 1472 0
-1466 1465 1467 1468 1469 1470 1471 1472 0
-1467 1465 1466 1468 1469 1470 1471 1472 0
-1468 1465 1466 1467 1469 1470 1471 1472 0
-1469 1465 1466 1467 1468 1470 1471 1472 0
-1470 1465 1466 1467 1468 1469 1471 1472 0
-1471 1465 1466 1467 1468 1469 1470 1472 0
-1472 1465 1466 1467 1468 1469 1470 1471 0
-1473 26 0
-1473 40 0
-1473 54 0
1473 -26 -40 -54 0
-1474 26 0
-1474 33 0
1474 -26 -33 0
-1475 18 0
-1475 40 0
-1475 59 0
1475 -18 -40 -59 0
-1476 10 0
-1476 40 0
-1476 76 0
1476 -10 -40 -76 0
-1477 7 0
-1477 59 0
1477 -7 -59 0
-1478 4 0
-1478 10 0
-1478 41 0
-1478 59 0
1478 -4 -10 -41 -59 0
-1479 4 0
-1479 10 0
-1479 33 0
-1479 73 0
1479 -4 -10 -33 -73 0
-1473 1474 1475 1476 1477 1478 1479 0
-1474 1473 1475 1476 1477 1478 1479 0
-1475 1473 1474 1476 1477 1478 1479 0
-1476 1473 1474 1475 1477 1478 1479 0
-1477 1473 1474 1475 1476 1478 1479 0
-1478 1473 1474 1475 1476 1477 1479 0
-1479 1473 1474 1475 1476 1477 1478 0
-1480 27 0
-1480 40 0
-1480 54 0
1480 -27 -40 -54 0
-1481 27 0
-1481 33 0
1481 -27 -33 0
-1482 18 0
-1482 40 0
-1482 60 0
1482 -18 -40 -60 0
-1483 7 0
-1483 60 0
1483 -7 -60 0
-1480 1481 1482 1483 0
-1481 1480 1482 1483 0
-1482 1480 1481 1483 0
-1483 1480 1481 1482 0
-1484 25 0
-1484 33 0
-1484 65 0
1484 -25 -33 -65 0
-1485 19 0
-1485 40 0
-1485 58 0
1485 -19 -40 -58 0
-1486 19 0
-1486 33 0
-1486 72 0
1486 -19 -33 -72 0
-1487 7 0
-1487 58 0
-1487 65 0
1487 -7 -58 -65 0
-1484 1485 1486 1487 0
-1485 1484 1486 1487 0
-1486 1484 1485 1487 0
-1487 1484 1485 1486 0
-1488 26 0
-1488 33 0
-1488 65 0
1488 -26 -33 -65 0
-1489 19 0
-1489 40 0
-1489 59 0
1489 -19 -40 -59 0
-1490 7 0
-1490 59 0
-1490 65 0
1490 -7 -59 -65 0
-1491 4 0
-1491 10 0
-1491 41 0
-1491 59 0
-1491 65 0
1491 -4 -10 -41 -59 -65 0
-1492 4 0
-1492 10 0
-1492 33 0
-1492 65 0
-1492 73 0
1492 -4 -10 -33 -65 -73 0
-1488 1489 1490 1491 1492 0
-1489 1488 1490 1491 1492 0
-1490 1488 1489 1491 1492 0
-1491 1488 1489 1490 1492 0
-1492 1488 1489 1490 1491 0
-1493 27 0
-1493 33 0
-1493 65 0
1493 -27 -33 -65 0
-1494 19 0
-1494 40 0
-1494 60 0
1494 -19 -40 -60 0
-1495 10 0
-1495 40 0
-1495 77 0
1495 -10 -40 -77 0
-1496 7 0
-1496 60 0
-1496 65 0
1496 -7 -60 -65 0
-1493 1494 1495 1496 0
-1494 1493 1495 1496 0
-1495 1493 1494 1496 0
-1496 1493 1494 1495 0
-1497 25 0
-1497 33 0
-1497 66 0
1497 -25 -33 -66 0
-1498 17 0
-1498 41 0
-1498 58 0
1498 -17 -41 -58 0
-1499 13 0
-1499 33 0
-1499 75 0
1499 -13 -33 -75 0
-1500 10 0
-1500 41 0
-1500 75 0
1500 -10 -41 -75 0
-1501 7 0
-1501 58 0
-1501 66 0
1501 -7 -58 -66 0
-1502 7 0
-1502 51 0
-1502 75 0
1502 -7 -51 -75 0
-1497 1498 1499 1500 1501 1502 0
-1498 1497 1499 1500 1501 1502 0
-1499 1497 1498 1500 1501 1502 0
-1500 1497 1498 1499 1501 1502 0
-1501 1497 1498 1499 1500 1502 0
-1502 1497 1498 1499 1500 1501 0
-1503 26 0
-1503 33 0
-1503 66 0
1503 -26 -33 -66 0
-1504 17 0
-1504 41 0
-1504 59 0
1504 -17 -41 -59 0
-1505 17 0
-1505 33 0
-1505 73 0
1505 -17 -33 -73 0
-1506 7 0
-1506 59 0
-1506 66 0
1506 -7 -59 -66 0
-1507 4 0
-1507 17 0
-1507 41 0
-1507 51 0
-1507 59 0
1507 -4 -17 -41 -51 -59 0
-1508 4 0
-1508 17 0
-1508 33 0
-1508 51 0
-1508 73 0
1508 -4 -17 -33 -51 -73 0
-1509 4 0
-1509 10 0
-1509 41 0
-1509 59 0
-1509 66 0
1509 -4 -10 -41 -59 -66 0
-1510 4 0
-1510 10 0
-1510 33 0
-1510 66 0
-1510 73 0
1510 -4 -10 -33 -66 -73 0
-1503 1504 1505 1506 1507 1508 1509 1510 0
-1504 1503 1505 1506 1507 1508 1509 1510 0
-1505 1503 1504 1506 1507 1508 1509 1510 0
-1506 1503 1504 1505 1507 1508 1509 1510 0
-1507 1503 1504 1505 1506 1508 1509 1510 0
-1508 1503 1504 1505 1506 1507 1509 1510 0
-1509 1503 1504 1505 1506 1507 1508 1510 0
-1510 1503 1504 1505 1506 1507 1508 1509 0
-1511 27 0
-1511 33 0
-1511 66 0
1511 -27 -33 -66 0
-1512 17 0
-1512 41 0
-1512 60 0
1512 -17 -41 -60 0
-1513 7 0
-1513 60 0
-1513 66 0
1513 -7 -60 -66 0
-1511 1512 1513 0
-1512 1511 1513 0
-1513 1511 1512 0
-1514 25 0
-1514 41 0
-1514 54 0
1514 -25 -41 -54 0
-1515 25 0
-1515 33 0
-1515 67 0
1515 -25 -33 -67 0
-1516 18 0
-1516 41 0
-1516 58 0
1516 -18 -41 -58 0
-1517 7 0
-1517 58 0
-1517 67 0
1517 -7 -58 -67 0
-1518 4 0
-1518 25 0
-1518 41 0
-1518 51 0
-1518 54 0
1518 -4 -25 -41 -51 -54 0
-1519 4 0
-1519 25 0
-1519 33 0
-1519 51 0
-1519 67 0
1519 -4 -25 -33 -51 -67 0
-1520 4 0
-1520 13 0
-1520 41 0
-1520 54 0
-1520 58 0
1520 -4 -13 -41 -54 -58 0
-1521 4 0
-1521 13 0
-1521 33 0
-1521 58 0
-1521 67 0
1521 -4 -13 -33 -58 -67 0
-1514 1515 1516 1517 1518 1519 1520 1521 0
-1515 1514 1516 1517 1518 1519 1520 1521 0
-1516 1514 1515 1517 1518 1519 1520 1521 0
-1517 1514 1515 1516 1518 1519 1520 1521 0
-1518 1514 1515 1516 1517 1519 1520 1521 0
-1519 1514 1515 1516 1517 1518 1520 1521 0
-1520 1514 1515 1516 1517 1518 1519 1521 0
-1521 1514 1515 1516 1517 1518 1519 1520 0
1522 0
-1523 26 0
-1523 41 0
-1523 54 0
1523 -26 -41 -54 0
-1524 26 0
-1524 33 0
-1524 67 0
1524 -26 -33 -67 0
-1525 18 0
-1525 41 0
-1525 59 0
1525 -18 -41 -59 0
-1526 18 0
-1526 33 0
-1526 73 0
1526 -18 -33 -73 0
-1527 13 0
-1527 33 0
-1527 76 0
1527 -13 -33 -76 0
-1528 10 0
-1528 41 0
-1528 76 0
1528 -10 -41 -76 0
-1529 7 0
-1529 59 0
-1529 67 0
1529 -7 -59 -67 0
-1530 7 0
-1530 54 0
-1530 73 0
1530 -7 -54 -73 0
-1531 7 0
-1531 51 0
-1531 76 0
1531 -7 -51 -76 0
-1532 4 0
-1532 26 0
-1532 41 0
-1532 51 0
-1532 54 0
1532 -4 -26 -41 -51 -54 0
-1533 4 0
-1533 26 0
-1533 33 0
-1533 51 0
-1533 67 0
1533 -4 -26 -33 -51 -67 0
-1534 4 0
-1534 18 0
-1534 41 0
-1534 51 0
-1534 59 0
1534 -4 -18 -41 -51 -59 0
-1535 4 0
-1535 18 0
-1535 33 0
-1535 51 0
-1535 73 0
1535 -4 -18 -33 -51 -73 0
-1536 4 0
-1536 13 0
-1536 41 0
-1536 54 0
-1536 59 0
1536 -4 -13 -41 -54 -59 0
-1537 4 0
-1537 13 0
-1537 33 0
-1537 59 0
-1537 67 0
1537 -4 -13 -33 -59 -67 0
-1538 4 0
-1538 13 0
-1538 33 0
-1538 54 0
-1538 73 0
1538 -4 -13 -33 -54 -73 0
-1539 4 0
-1539 10 0
-1539 41 0
-1539 59 0
-1539 67 0
1539 -4 -10 -41 -59 -67 0
-1540 4 0
-1540 10 0
-1540 41 0
-1540 54 0
-1540 73 0
1540 -4 -10 -41 -54 -73 0
-1541 4 0
-1541 10 0
-1541 33 0
-1541 67 0
-1541 73 0
1541 -4 -10 -33 -67 -73 0
-1522 1523 1524 1525 1526 1527 1528 1529 1530 1531 1532 1533 1534 1535 1536 1537 1538 1539 1540 1541 0
-1523 1522 1524 1525 1526 1527 1528 1529 1530 1531 1532 1533 1534 1535 1536 1537 1538 1539 1540 1541 0
-1524 1522 1523 1525 1526 1527 1528 1529 1530 1531 1532 1533 1534 1535 1536 1537 1538 1539 1540 1541 0
-1525 1522 1523 1524 1526 1527 1528 1529 1530 1531 1532 1533 1534 1535 1536 1537 1538 1539 1540 1541 0
-1526 1522 1523 1524 1525 1527 1528 1529 1530 1531 1532 1533 1534 1535 1536 1537 1538 1539 1540 1541 0
-1527 1522 1523 1524 1525 1526 1528 1529 1530 1531 1532 1533 1534 1535 1536 1537 1538 1539 1540 1541 0
-1528 1522 1523 1524 1525 1526 1527 1529 1530 1531 1532 1533 1534 1535 1536 1537 1538 1539 1540 1541 0
-1529 1522 1523 1524 1525 1526 1527 1528 1530 1531 1532 1533 1534 1535 1536 1537 1538 1539 1540 1541 0
-1530 1522 1523 1524 1525 1526 1527 1528 1529 1531 1532 1533 1534 1535 1536 1537 1538 1539 1540 1541 0
-1531 1522 1523 1524 1525 1526 1527 1528 1529 1530 1532 1533 1534 1535 1536 1537 1538 1539 1540 1541 0
-1532 1522 1523 1524 1525 1526 1527 1528 1529 1530 1531 1533 1534 1535 1536 1537 1538 1539 1540 1541 0
-1533 1522 1523 1524 1525 1526 1527 1528 1529 1530 1531 1532 1534 1535 1536 1537 1538 1539 1540 1541 0
-1534 1522 1523 1524 1525 1526 1527 1528 1529 1530 1531 1532 1533 1535 1536 1537 1538 1539 1540 1541 0
-1535 1522 1523 1524 1525 1526 1527 1528 1529 1530 1531 1532 1533 1534 1536 1537 1538 1539 1540 1541 0
-1536 1522 1523 1524 1525 1526 1527 1528 1529 1530 1531 1532 1533 1534 1535 1537 1538 1539 1540 1541 0
-1537 1522 1523 1524 1525 1526 1527 1528 1529 1530 1531 1532 1533 1534 1535 1536 1538 1539 1540 1541 0
-1538 1522 1523 1524 1525 1526 1527 1528 1529 1530 1531 1532 1533 1534 1535 1536 1537 1539 1540 1541 0
-1539 1522 1523 1524 1525 1526 1527 1528 1529 1530 1531 1532 1533 1534 1535 1536 1537 1538 1540 1541 0
-1540 1522 1523 1524 1525 1526 1527 1528 1529 1530 1531 1532 1533 1534 1535 1536 1537 1538 1539 1541 0
-1541 1522 1523 1524 1525 1526 1527 1528 1529 1530 1531 1532 1533 1534 1535 1536 1537 1538 1539 1540 0
-1542 27 0
-1542 41 0
-1542 54 0
1542 -27 -41 -54 0
-1543 27 0
-1543 33 0
-1543 67 0
1543 -27 -33 -67 0
-1544 18 0
-1544 41 0
-1544 60 0
1544 -18 -41 -60 0
-1545 7 0
-1545 60 0
-1545 67 0
1545 -7 -60 -67 0
-1546 4 0
-1546 27 0
-1546 41 0
-1546 51 0
-1546 54 0
1546 -4 -27 -41 -51 -54 0
-1547 4 0
-1547 27 0
-1547 33 0
-1547 51 0
-1547 67 0
1547 -4 -27 -33 -51 -67 0
-1548 4 0
-1548 13 0
-1548 41 0
-1548 54 0
-1548 60 0
1548 -4 -13 -41 -54 -60 0
-1549 4 0
-1549 13 0
-1549 33 0
-1549 60 0
-1549 67 0
1549 -4 -13 -33 -60 -67 0
-1542 1543 1544 1545 1546 1547 1548 1549 0
-1543 1542 1544 1545 1546 1547 1548 1549 0
-1544 1542 1543 1545 1546 1547 1548 1549 0
-1545 1542 1543 1544 1546 1547 1548 1549 0
-1546 1542 1543 1544 1545 1547 1548 1549 0
-1547 1542 1543 1544 1545 1546 1548 1549 0
-1548 1542 1543 1544 1545 1546 1547 1549 0
-1549 1542 1543 1544 1545 1546 1547 1548 0
-1550 25 0
-1550 33 0
-1550 68 0
1550 -25 -33 -68 0
-1551 19 0
-1551 41 0
-1551 58 0
1551 -19 -41 -58 0
-1552 7 0
-1552 58 0
-1552 68 0
1552 -7 -58 -68 0
-1550 1551 1552 0
-1551 1550 1552 0
-1552 1550 1551 0
-1553 26 0
-1553 33 0
-1553 68 0
1553 -26 -33 -68 0
-1554 19 0
-1554 41 0
-1554 59 0
1554 -19 -41 -59 0
-1555 19 0
-1555 33 0
-1555 73 0
1555 -19 -33 -73 0
-1556 7 0
-1556 59 0
-1556 68 0
1556 -7 -59 -68 0
-1557 4 0
-1557 19 0
-1557 41 0
-1557 51 0
-1557 59 0
1557 -4 -19 -41 -51 -59 0
-1558 4 0
-1558 19 0
-1558 33 0
-1558 51 0
-1558 73 0
1558 -4 -19 -33 -51 -73 0
-1559 4 0
-1559 10 0
-1559 41 0
-1559 59 0
-1559 68 0
1559 -4 -10 -41 -59 -68 0
-1560 4 0
-1560 10 0
-1560 33 0
-1560 68 0
-1560 73 0
1560 -4 -10 -33 -68 -73 0
-1553 1554 1555 1556 1557 1558 1559 1560 0
-1554 1553 1555 1556 1557 1558 1559 1560 0
-1555 1553 1554 1556 1557 1558 1559 1560 0
-1556 1553 1554 1555 1557 1558 1559 1560 0
-1557 1553 1554 1555 1556 1558 1559 1560 0
-1558 1553 1554 1555 1556 1557 1559 1560 0
-1559 1553 1554 1555 1556 1557 1558 1560 0
-1560 1553 1554 1555 1556 1557 1558 1559 0
-1561 27 0
-1561 33 0
-1561 68 0
1561 -27 -33 -68 0
-1562 19 0
-1562 41 0
-1562 60 0
1562 -19 -41 -60 0
-1563 13 0
-1563 33 0
-1563 77 0
1563 -13 -33 -77 0
-1564 10 0
-1564 41 0
-1564 77 0
1564 -10 -41 -77 0
-1565 7 0
-1565 60 0
-1565 68 0
1565 -7 -60 -68 0
-1566 7 0
-1566 51 0
-1566 77 0
1566 -7 -51 -77 0
-1561 1562 1563 1564 1565 1566 0
-1562 1561 1563 1564 1565 1566 0
-1563 1561 1562 1564 1565 1566 0
-1564 1561 1562 1563 1565 1566 0
-1565 1561 1562 1563 1564 1566 0
-1566 1561 1562 1563 1564 1565 0
-1567 25 0
-1567 33 0
-1567 69 0
1567 -25 -33 -69 0
-1568 17 0
-1568 42 0
-1568 58 0
1568 -17 -42 -58 0
-1569 10 0
-1569 42 0
-1569 75 0
1569 -10 -42 -75 0
-1570 7 0
-1570 58 0
-1570 69 0
1570 -7 -58 -69 0
-1567 1568 1569 1570 0
-1568 1567 1569 1570 0
-1569 1567 1568 1570 0
-1570 1567 1568 1569 0
-1571 26 0
-1571 33 0
-1571 69 0
1571 -26 -33 -69 0
-1572 17 0
-1572 42 0
-1572 59 0
1572 -17 -42 -59 0
-1573 7 0
-1573 59 0
-1573 69 0
1573 -7 -59 -69 0
-1574 4 0
-1574 10 0
-1574 41 0
-1574 59 0
-1574 69 0
1574 -4 -10 -41 -59 -69 0
-1575 4 0
-1575 10 0
-1575 33 0
-1575 69 0
-1575 73 0
1575 -4 -10 -33 -69 -73 0
-1571 1572 1573 1574 1575 0
-1572 1571 1573 1574 1575 0
-1573 1571 1572 1574 1575 0
-1574 1571 1572 1573 1575 0
-1575 1571 1572 1573 1574 0
-1576 27 0
-1576 33 0
-1576 69 0
1576 -27 -33 -69 0
-1577 17 0
-1577 42 0
-1577 60 0
1577 -17 -42 -60 0
-1578 17 0
-1578 33 0
-1578 74 0
1578 -17 -33 -74 0
-1579 7 0
-1579 60 0
-1579 69 0
1579 -7 -60 -69 0
-1576 1577 1578 1579 0
-1577 1576 1578 1579 0
-1578 1576 1577 1579 0
-1579 1576 1577 1578 0
-1580 25 0
-1580 42 0
-1580 54 0
1580 -25 -42 -54 0
-1581 25 0
-1581 33 0
-1581 70 0
1581 -25 -33 -70 0
-1582 18 0
-1582 42 0
-1582 58 0
1582 -18 -42 -58 0
-1583 7 0
-1583 58 0
-1583 70 0
1583 -7 -58 -70 0
-1580 1581 1582 1583 0
-1581 1580 1582 1583 0
-1582 1580 1581 1583 0
-1583 1580 1581 1582 0
-1584 26 0
-1584 42 0
-1584 54 0
1584 -26 -42 -54 0
-1585 26 0
-1585 33 0
-1585 70 0
1585 -26 -33 -70 0
-1586 18 0
-1586 42 0
-1586 59 0
1586 -18 -42 -59 0
-1587 10 0
-1587 42 0
-1587 76 0
1587 -10 -42 -76 0
-1588 7 0
-1588 59 0
-1588 70 0
1588 -7 -59 -70 0
-1589 4 0
-1589 10 0
-1589 41 0
-1589 59 0
-1589 70 0
1589 -4 -10 -41 -59 -70 0
-1590 4 0
-1590 10 0
-1590 33 0
-1590 70 0
-1590 73 0
1590 -4 -10 -33 -70 -73 0
-1584 1585 1586 1587 1588 1589 1590 0
-1585 1584 1586 1587 1588 1589 1590 0
-1586 1584 1585 1587 1588 1589 1590 0
-1587 1584 1585 1586 1588 1589 1590 0
-1588 1584 1585 1586 1587 1589 1590 0
-1589 1584 1585 1586 1587 1588 1590 0
-1590 1584 1585 1586 1587 1588 1589 0
-1591 27 0
-1591 42 0
-1591 54 0
1591 -27 -42 -54 0
-1592 27 0
-1592 33 0
-1592 70 0
1592 -27 -33 -70 0
-1593 18 0
-1593 42 0
-1593 60 0
1593 -18 -42 -60 0
-1594 18 0
-1594 33 0
-1594 74 0
1594 -18 -33 -74 0
-1595 7 0
-1595 60 0
-1595 70 0
1595 -7 -60 -70 0
-1596 7 0
-1596 54 0
-1596 74 0
1596 -7 -54 -74 0
-1597 4 0
-1597 10 0
-1597 41 0
-1597 54 0
-1597 74 0
1597 -4 -10 -41 -54 -74 0
-1598 4 0
-1598 10 0
-1598 33 0
-1598 67 0
-1598 74 0
1598 -4 -10 -33 -67 -74 0
-1591 1592 1593 1594 1595 1596 1597 1598 0
-1592 1591 1593 1594 1595 1596 1597 1598 0
-1593 1591 1592 1594 1595 1596 1597 1598 0
-1594 1591 1592 1593 1595 1596 1597 1598 0
-1595 1591 1592 1593 1594 1596 1597 1598 0
-1596 1591 1592 1593 1594 1595 1597 1598 0
-1597 1591 1592 1593 1594 1595 1596 1598 0
-1598 1591 1592 1593 1594 1595 1596 1597 0
-1599 25 0
-1599 33 0
-1599 71 0
1599 -25 -33 -71 0
-1600 19 0
-1600 42 0
-1600 58 0
1600 -19 -42 -58 0
-1601 7 0
-1601 58 0
-1601 71 0
1601 -7 -58 -71 0
-1599 1600 1601 0
-1600 1599 1601 0
-1601 1599 1600 0
-1602 26 0
-1602 33 0
-1602 71 0
1602 -26 -33 -71 0
-1603 19 0
-1603 42 0
-1603 59 0
1603 -19 -42 -59 0
-1604 7 0
-1604 59 0
-1604 71 0
1604 -7 -59 -71 0
-1605 4 0
-1605 10 0
-1605 41 0
-1605 59 0
-1605 71 0
1605 -4 -10 -41 -59 -71 0
-1606 4 0
-1606 10 0
-1606 33 0
-1606 71 0
-1606 73 0
1606 -4 -10 -33 -71 -73 0
-1602 1603 1604 1605 1606 0
-1603 1602 1604 1605 1606 0
-1604 1602 1603 1605 1606 0
-1605 1602 1603 1604 1606 0
-1606 1602 1603 1604 1605 0
-1607 27 0
-1607 33 0
-1607 71 0
1607 -27 -33 -71 0
-1608 19 0
-1608 42 0
-1608 60 0
1608 -19 -42 -60 0
-1609 19 0
-1609 33 0
-1609 74 0
1609 -19 -33 -74 0
-1610 10 0
-1610 42 0
-1610 77 0
1610 -10 -42 -77 0
-1611 7 0
-1611 60 0
-1611 71 0
1611 -7 -60 -71 0
-1607 1608 1609 1610 1611 0
-1608 1607 1609 1610 1611 0
-1609 1607 1608 1610 1611 0
-1610 1607 1608 1609 1611 0
-1611 1607 1608 1609 1610 0
-1612 25 0
-1612 34 0
-1612 64 0
1612 -25 -34 -64 0
-1613 17 0
-1613 40 0
-1613 61 0
1613 -17 -40 -61 0
-1614 17 0
-1614 34 0
-1614 72 0
1614 -17 -34 -72 0
-1615 7 0
-1615 61 0
-1615 64 0
1615 -7 -61 -64 0
-1612 1613 1614 1615 0
-1613 1612 1614 1615 0
-1614 1612 1613 1615 0
-1615 1612 1613 1614 0
-1616 26 0
-1616 34 0
-1616 64 0
1616 -26 -34 -64 0
-1617 17 0
-1617 40 0
-1617 62 0
1617 -17 -40 -62 0
-1618 7 0
-1618 62 0
-1618 64 0
1618 -7 -62 -64 0
-1616 1617 1618 0
-1617 1616 1618 0
-1618 1616 1617 0
-1619 27 0
-1619 34 0
-1619 64 0
1619 -27 -34 -64 0
-1620 17 0
-1620 40 0
-1620 63 0
1620 -17 -40 -63 0
-1621 7 0
-1621 63 0
-1621 64 0
1621 -7 -63 -64 0
-1619 1620 1621 0
-1620 1619 1621 0
-1621 1619 1620 0
-1622 25 0
-1622 34 0
1622 -25 -34 0
-1623 18 0
-1623 40 0
-1623 61 0
1623 -18 -40 -61 0
-1624 18 0
-1624 34 0
-1624 72 0
1624 -18 -34 -72 0
-1625 7 0
-1625 61 0
1625 -7 -61 0
-1622 1623 1624 1625 0
-1623 1622 1624 1625 0
-1624 1622 1623 1625 0
-1625 1622 1623 1624 0
-1626 26 0
-1626 34 0
1626 -26 -34 0
-1627 18 0
-1627 40 0
-1627 62 0
1627 -18 -40 -62 0
-1628 7 0
-1628 62 0
1628 -7 -62 0
-1626 1627 1628 0
-1627 1626 1628 0
-1628 1626 1627 0
-1629 27 0
-1629 34 0
1629 -27 -34 0
-1630 18 0
-1630 40 0
-1630 63 0
1630 -18 -40 -63 0
-1631 7 0
-1631 63 0
1631 -7 -63 0
-1629 1630 1631 0
-1630 1629 1631 0
-1631 1629 1630 0
-1632 25 0
-1632 40 0
-1632 55 0
1632 -25 -40 -55 0
-1633 25 0
-1633 34 0
-1633 65 0
1633 -25 -34 -65 0
-1634 19 0
-1634 40 0
-1634 61 0
1634 -19 -40 -61 0
-1635 19 0
-1635 34 0
-1635 72 0
1635 -19 -34 -72 0
-1636 7 0
-1636 61 0
-1636 65 0
1636 -7 -61 -65 0
-1637 7 0
-1637 55 0
-1637 72 0
1637 -7 -55 -72 0
-1632 1633 1634 1635 1636 1637 0
-1633 1632 1634 1635 1636 1637 0
-1634 1632 1633 1635 1636 1637 0
-1635 1632 1633 1634 1636 1637 0
-1636 1632 1633 1634 1635 1637 0
-1637 1632 1633 1634 1635 1636 0
-1638 26 0
-1638 40 0
-1638 55 0
1638 -26 -40 -55 0
-1639 26 0
-1639 34 0
-1639 65 0
1639 -26 -34 -65 0
-1640 19 0
-1640 40 0
-1640 62 0
1640 -19 -40 -62 0
-1641 7 0
-1641 62 0
-1641 65 0
1641 -7 -62 -65 0
-1638 1639 1640 1641 0
-1639 1638 1640 1641 0
-1640 1638 1639 1641 0
-1641 1638 1639 1640 0
-1642 27 0
-1642 40 0
-1642 55 0
1642 -27 -40 -55 0
-1643 27 0
-1643 34 0
-1643 65 0
1643 -27 -34 -65 0
-1644 19 0
-1644 40 0
-1644 63 0
1644 -19 -40 -63 0
-1645 7 0
-1645 63 0
-1645 65 0
1645 -7 -63 -65 0
-1642 1643 1644 1645 0
-1643 1642 1644 1645 0
-1644 1642 1643 1645 0
-1645 1642 1643 1644 0
-1646 25 0
-1646 34 0
-1646 66 0
1646 -25 -34 -66 0
-1647 17 0
-1647 41 0
-1647 61 0
1647 -17 -41 -61 0
-1648 13 0
-1648 34 0
-1648 75 0
1648 -13 -34 -75 0
-1649 7 0
-1649 61 0
-1649 66 0
1649 -7 -61 -66 0
-1646 1647 1648 1649 0
-1647 1646 1648 1649 0
-1648 1646 1647 1649 0
-1649 1646 1647 1648 0
-1650 26 0
-1650 34 0
-1650 66 0
1650 -26 -34 -66 0
-1651 17 0
-1651 41 0
-1651 62 0
1651 -17 -41 -62 0
-1652 17 0
-1652 34 0
-1652 73 0
1652 -17 -34 -73 0
-1653 7 0
-1653 62 0
-1653 66 0
1653 -7 -62 -66 0
-1650 1651 1652 1653 0
-1651 1650 1652 1653 0
-1652 1650 1651 1653 0
-1653 1650 1651 1652 0
-1654 27 0
-1654 34 0
-1654 66 0
1654 -27 -34 -66 0
-1655 17 0
-1655 41 0
-1655 63 0
1655 -17 -41 -63 0
-1656 7 0
-1656 63 0
-1656 66 0
1656 -7 -63 -66 0
-1654 1655 1656 0
-1655 1654 1656 0
-1656 1654 1655 0
-1657 25 0
-1657 34 0
-1657 67 0
1657 -25 -34 -67 0
-1658 18 0
-1658 41 0
-1658 61 0
1658 -18 -41 -61 0
-1659 7 0
-1659 61 0
-1659 67 0
1659 -7 -61 -67 0
-1660 4 0
-1660 13 0
-1660 41 0
-1660 54 0
-1660 61 0
1660 -4 -13 -41 -54 -61 0
-1661 4 0
-1661 13 0
-1661 33 0
-1661 61 0
-1661 67 0
1661 -4 -13 -33 -61 -67 0
-1657 1658 1659 1660 1661 0
-1658 1657 1659 1660 1661 0
-1659 1657 1658 1660 1661 0
-1660 1657 1658 1659 1661 0
-1661 1657 1658 1659 1660 0
-1662 26 0
-1662 34 0
-1662 67 0
1662 -26 -34 -67 0
-1663 18 0
-1663 41 0
-1663 62 0
1663 -18 -41 -62 0
-1664 18 0
-1664 34 0
-1664 73 0
1664 -18 -34 -73 0
-1665 13 0
-1665 34 0
-1665 76 0
1665 -13 -34 -76 0
-1666 7 0
-1666 62 0
-1666 67 0
1666 -7 -62 -67 0
-1667 4 0
-1667 13 0
-1667 41 0
-1667 54 0
-1667 62 0
1667 -4 -13 -41 -54 -62 0
-1668 4 0
-1668 13 0
-1668 33 0
-1668 62 0
-1668 67 0
1668 -4 -13 -33 -62 -67 0
-1662 1663 1664 1665 1666 1667 1668 0
-1663 1662 1664 1665 1666 1667 1668 0
-1664 1662 1663 1665 1666 1667 1668 0
-1665 1662 1663 1664 1666 1667 1668 0
-1666 1662 1663 1664 1665 1667 1668 0
-1667 1662 1663 1664 1665 1666 1668 0
-1668 1662 1663 1664 1665 1666 1667 0
-1669 27 0
-1669 34 0
-1669 67 0
1669 -27 -34 -67 0
-1670 18 0
-1670 41 0
-1670 63 0
1670 -18 -41 -63 0
-1671 7 0
-1671 63 0
-1671 67 0
1671 -7 -63 -67 0
-1672 4 0
-1672 13 0
-1672 41 0
-1672 54 0
-1672 63 0
1672 -4 -13 -41 -54 -63 0
-1673 4 0
-1673 13 0
-1673 33 0
-1673 63 0
-1673 67 0
1673 -4 -13 -33 -63 -67 0
-1669 1670 1671 1672 1673 0
-1670 1669 1671 1672 1673 0
-1671 1669 1670 1672 1673 0
-1672 1669 1670 1671 1673 0
-1673 1669 1670 1671 1672 0
-1674 25 0
-1674 41 0
-1674 55 0
1674 -25 -41 -55 0
-1675 25 0
-1675 34 0
-1675 68 0
1675 -25 -34 -68 0
-1676 19 0
-1676 41 0
-1676 61 0
1676 -19 -41 -61 0
-1677 7 0
-1677 61 0
-1677 68 0
1677 -7 -61 -68 0
-1674 1675 1676 1677 0
-1675 1674 1676 1677 0
-1676 1674 1675 1677 0
-1677 1674 1675 1676 0
-1678 26 0
-1678 41 0
-1678 55 0
1678 -26 -41 -55 0
-1679 26 0
-1679 34 0
-1679 68 0
1679 -26 -34 -68 0
-1680 19 0
-1680 41 0
-1680 62 0
1680 -19 -41 -62 0
-1681 19 0
-1681 34 0
-1681 73 0
1681 -19 -34 -73 0
-1682 7 0
-1682 62 0
-1682 68 0
1682 -7 -62 -68 0
-1683 7 0
-1683 55 0
-1683 73 0
1683 -7 -55 -73 0
-1684 4 0
-1684 13 0
-1684 41 0
-1684 55 0
-1684 59 0
1684 -4 -13 -41 -55 -59 0
-1685 4 0
-1685 13 0
-1685 33 0
-1685 55 0
-1685 73 0
1685 -4 -13 -33 -55 -73 0
-1678 1679 1680 1681 1682 1683 1684 1685 0
-1679 1678 1680 1681 1682 1683 1684 1685 0
-1680 1678 1679 1681 1682 1683 1684 1685 0
-1681 1678 1679 1680 1682 1683 1684 1685 0
-1682 1678 1679 1680 1681 1683 1684 1685 0
-1683 1678 1679 1680 1681 1682 1684 1685 0
-1684 1678 1679 1680 1681 1682 1683 1685 0
-1685 1678 1679 1680 1681 1682 1683 1684 0
-1686 27 0
-1686 41 0
-1686 55 0
1686 -27 -41 -55 0
-1687 27 0
-1687 34 0
-1687 68 0
1687 -27 -34 -68 0
-1688 19 0
-1688 41 0
-1688 63 0
1688 -19 -41 -63 0
-1689 13 0
-1689 34 0
-1689 77 0
1689 -13 -34 -77 0
-1690 7 0
-1690 63 0
-1690 68 0
1690 -7 -63 -68 0
-1686 1687 1688 1689 1690 0
-1687 1686 1688 1689 1690 0
-1688 1686 1687 1689 1690 0
-1689 1686 1687 1688 1690 0
-1690 1686 1687 1688 1689 0
-1691 25 0
-1691 34 0
-1691 69 0
1691 -25 -34 -69 0
-1692 17 0
-1692 42 0
-1692 61 0
1692 -17 -42 -61 0
-1693 7 0
-1693 61 0
-1693 69 0
1693 -7 -61 -69 0
-1694 7 0
-1694 52 0
-1694 75 0
1694 -7 -52 -75 0
-1691 1692 1693 1694 0
-1692 1691 1693 1694 0
-1693 1691 1692 1694 0
-1694 1691 1692 1693 0
-1695 26 0
-1695 34 0
-1695 69 0
1695 -26 -34 -69 0
-1696 17 0
-1696 42 0
-1696 62 0
1696 -17 -42 -62 0
-1697 7 0
-1697 62 0
-1697 69 0
1697 -7 -62 -69 0
-1698 4 0
-1698 17 0
-1698 41 0
-1698 52 0
-1698 59 0
1698 -4 -17 -41 -52 -59 0
-1699 4 0
-1699 17 0
-1699 33 0
-1699 52 0
-1699 73 0
1699 -4 -17 -33 -52 -73 0
-1695 1696 1697 1698 1699 0
-1696 1695 1697 1698 1699 0
-1697 1695 1696 1698 1699 0
-1698 1695 1696 1697 1699 0
-1699 1695 1696 1697 1698 0
-1700 27 0
-1700 34 0
-1700 69 0
1700 -27 -34 -69 0
-1701 17 0
-1701 42 0
-1701 63 0
1701 -17 -42 -63 0
-1702 17 0
-1702 34 0
-1702 74 0
1702 -17 -34 -74 0
-1703 7 0
-1703 63 0
-1703 69 0
1703 -7 -63 -69 0
-1700 1701 1702 1703 0
-1701 1700 1702 1703 0
-1702 1700 1701 1703 0
-1703 1700 1701 1702 0
-1704 25 0
-1704 34 0
-1704 70 0
1704 -25 -34 -70 0
-1705 18 0
-1705 42 0
-1705 61 0
1705 -18 -42 -61 0
-1706 7 0
-1706 61 0
-1706 70 0
1706 -7 -61 -70 0
-1707 4 0
-1707 25 0
-1707 41 0
-1707 52 0
-1707 54 0
1707 -4 -25 -41 -52 -54 0
-1708 4 0
-1708 25 0
-1708 33 0
-1708 52 0
-1708 67 0
1708 -4 -25 -33 -52 -67 0
-1704 1705 1706 1707 1708 0
-1705 1704 1706 1707 1708 0
-1706 1704 1705 1707 1708 0
-1707 1704 1705 1706 1708 0
-1708 1704 1705 1706 1707 0
-1709 26 0
-1709 34 0
-1709 70 0
1709 -26 -34 -70 0
-1710 18 0
-1710 42 0
-1710 62 0
1710 -18 -42 -62 0
-1711 7 0
-1711 62 0
-1711 70 0
1711 -7 -62 -70 0
-1712 7 0
-1712 52 0
-1712 76 0
1712 -7 -52 -76 0
-1713 4 0
-1713 26 0
-1713 41 0
-1713 52 0
-1713 54 0
1713 -4 -26 -41 -52 -54 0
-1714 4 0
-1714 26 0
-1714 33 0
-1714 52 0
-1714 67 0
1714 -4 -26 -33 -52 -67 0
-1715 4 0
-1715 18 0
-1715 41 0
-1715 52 0
-1715 59 0
1715 -4 -18 -41 -52 -59 0
-1716 4 0
-1716 18 0
-1716 33 0
-1716 52 0
-1716 73 0
1716 -4 -18 -33 -52 -73 0
-1709 1710 1711 1712 1713 1714 1715 1716 0
-1710 1709 1711 1712 1713 1714 1715 1716 0
-1711 1709 1710 1712 1713 1714 1715 1716 0
-1712 1709 1710 1711 1713 1714 1715 1716 0
-1713 1709 1710 1711 1712 1714 1715 1716 0
-1714 1709 1710 1711 1712 1713 1715 1716 0
-1715 1709 1710 1711 1712 1713 1714 1716 0
-1716 1709 1710 1711 1712 1713 1714 1715 0
-1717 27 0
-1717 34 0
-1717 70 0
1717 -27 -34 -70 0
-1718 18 0
-1718 42 0
-1718 63 0
1718 -18 -42 -63 0
-1719 18 0
-1719 34 0
-1719 74 0
1719 -18 -34 -74 0
-1720 7 0
-1720 63 0
-1720 70 0
1720 -7 -63 -70 0
-1721 4 0
-1721 27 0
-1721 41 0
-1721 52 0
-1721 54 0
1721 -4 -27 -41 -52 -54 0
-1722 4 0
-1722 27 0
-1722 33 0
-1722 52 0
-1722 67 0
1722 -4 -27 -33 -52 -67 0
-1717 1718 1719 1720 1721 1722 0
-1718 1717 1719 1720 1721 1722 0
-1719 1717 1718 1720 1721 1722 0
-1720 1717 1718 1719 1721 1722 0
-1721 1717 1718 1719 1720 1722 0
-1722 1717 1718 1719 1720 1721 0
-1723 25 0
-1723 42 0
-1723 55 0
1723 -25 -42 -55 0
-1724 25 0
-1724 34 0
-1724 71 0
1724 -25 -34 -71 0
-1725 19 0
-1725 42 0
-1725 61 0
1725 -19 -42 -61 0
-1726 7 0
-1726 61 0
-1726 71 0
1726 -7 -61 -71 0
-1723 1724 1725 1726 0
-1724 1723 1725 1726 0
-1725 1723 1724 1726 0
-1726 1723 1724 1725 0
-1727 26 0
-1727 42 0
-1727 55 0
1727 -26 -42 -55 0
-1728 26 0
-1728 34 0
-1728 71 0
1728 -26 -34 -71 0
-1729 19 0
-1729 42 0
-1729 62 0
1729 -19 -42 -62 0
-1730 7 0
-1730 62 0
-1730 71 0
1730 -7 -62 -71 0
-1731 4 0
-1731 19 0
-1731 41 0
-1731 52 0
-1731 59 0
1731 -4 -19 -41 -52 -59 0
-1732 4 0
-1732 19 0
-1732 33 0
-1732 52 0
-1732 73 0
1732 -4 -19 -33 -52 -73 0
-1727 1728 1729 1730 1731 1732 0
-1728 1727 1729 1730 1731 1732 0
-1729 1727 1728 1730 1731 1732 0
-1730 1727 1728 1729 1731 1732 0
-1731 1727 1728 1729 1730 1732 0
-1732 1727 1728 1729 1730 1731 0
-1733 27 0
-1733 42 0
-1733 55 0
1733 -27 -42 -55 0
-1734 27 0
-1734 34 0
-1734 71 0
1734 -27 -34 -71 0
-1735 19 0
-1735 42 0
-1735 63 0
1735 -19 -42 -63 0
-1736 19 0
-1736 34 0
-1736 74 0
1736 -19 -34 -74 0
-1737 7 0
-1737 63 0
-1737 71 0
1737 -7 -63 -71 0
-1738 7 0
-1738 55 0
-1738 74 0
1738 -7 -55 -74 0
-1739 7 0
-1739 52 0
-1739 77 0
1739 -7 -52 -77 0
-1733 1734 1735 1736 1737 1738 1739 0
-1734 1733 1735 1736 1737 1738 1739 0
-1735 1733 1734 1736 1737 1738 1739 0
-1736 1733 1734 1735 1737 1738 1739 0
-1737 1733 1734 1735 1736 1738 1739 0
-1738 1733 1734 1735 1736 1737 1739 0
-1739 1733 1734 1735 1736 1737 1738 0
-1740 25 0
-1740 43 0
-1740 53 0
1740 -25 -43 -53 0
-1741 25 0
-1741 35 0
-1741 64 0
1741 -25 -35 -64 0
-1742 17 0
-1742 43 0
-1742 56 0
1742 -17 -43 -56 0
-1743 17 0
-1743 35 0
-1743 72 0
1743 -17 -35 -72 0
-1740 1741 1742 1743 0
-1741 1740 1742 1743 0
-1742 1740 1741 1743 0
-1743 1740 1741 1742 0
-1744 26 0
-1744 43 0
-1744 53 0
1744 -26 -43 -53 0
-1745 26 0
-1745 35 0
-1745 64 0
1745 -26 -35 -64 0
-1746 17 0
-1746 43 0
1746 -17 -43 0
-1744 1745 1746 0
-1745 1744 1746 0
-1746 1744 1745 0
-1747 27 0
-1747 43 0
-1747 53 0
1747 -27 -43 -53 0
-1748 27 0
-1748 35 0
-1748 64 0
1748 -27 -35 -64 0
-1749 17 0
-1749 49 0
-1749 50 0
1749 -17 -49 -50 0
-1750 17 0
-1750 43 0
-1750 57 0
1750 -17 -43 -57 0
-1747 1748 1749 1750 0
-1748 1747 1749 1750 0
-1749 1747 1748 1750 0
-1750 1747 1748 1749 0
-1751 25 0
-1751 35 0
1751 -25 -35 0
-1752 18 0
-1752 43 0
-1752 56 0
1752 -18 -43 -56 0
-1753 18 0
-1753 35 0
-1753 72 0
1753 -18 -35 -72 0
-1751 1752 1753 0
-1752 1751 1753 0
-1753 1751 1752 0
-1754 26 0
-1754 35 0
1754 -26 -35 0
-1755 18 0
-1755 43 0
1755 -18 -43 0
-1754 1755 0
-1755 1754 0
-1756 27 0
-1756 35 0
1756 -27 -35 0
-1757 18 0
-1757 49 0
-1757 50 0
1757 -18 -49 -50 0
-1758 18 0
-1758 43 0
-1758 57 0
1758 -18 -43 -57 0
-1756 1757 1758 0
-1757 1756 1758 0
-1758 1756 1757 0
-1759 25 0
-1759 47 0
-1759 50 0
1759 -25 -47 -50 0
-1760 25 0
-1760 35 0
-1760 65 0
1760 -25 -35 -65 0
-1761 19 0
-1761 43 0
-1761 56 0
1761 -19 -43 -56 0
-1762 19 0
-1762 35 0
-1762 72 0
1762 -19 -35 -72 0
-1759 1760 1761 1762 0
-1760 1759 1761 1762 0
-1761 1759 1760 1762 0
-1762 1759 1760 1761 0
-1763 26 0
-1763 47 0
-1763 50 0
1763 -26 -47 -50 0
-1764 26 0
-1764 35 0
-1764 65 0
1764 -26 -35 -65 0
-1765 19 0
-1765 43 0
1765 -19 -43 0
-1763 1764 1765 0
-1764 1763 1765 0
-1765 1763 1764 0
-1766 27 0
-1766 47 0
-1766 50 0
1766 -27 -47 -50 0
-1767 27 0
-1767 35 0
-1767 65 0
1767 -27 -35 -65 0
-1768 19 0
-1768 49 0
-1768 50 0
1768 -19 -49 -50 0
-1769 19 0
-1769 43 0
-1769 57 0
1769 -19 -43 -57 0
-1766 1767 1768 1769 0
-1767 1766 1768 1769 0
-1768 1766 1767 1769 0
-1769 1766 1767 1768 0
-1770 25 0
-1770 44 0
-1770 53 0
1770 -25 -44 -53 0
-1771 25 0
-1771 35 0
-1771 66 0
1771 -25 -35 -66 0
-1772 17 0
-1772 44 0
-1772 56 0
1772 -17 -44 -56 0
-1773 13 0
-1773 35 0
-1773 75 0
1773 -13 -35 -75 0
-1770 1771 1772 1773 0
-1771 1770 1772 1773 0
-1772 1770 1771 1773 0
-1773 1770 1771 1772 0
-1774 26 0
-1774 44 0
-1774 53 0
1774 -26 -44 -53 0
-1775 26 0
-1775 35 0
-1775 66 0
1775 -26 -35 -66 0
-1776 17 0
-1776 44 0
1776 -17 -44 0
-1777 17 0
-1777 35 0
-1777 73 0
1777 -17 -35 -73 0
-1774 1775 1776 1777 0
-1775 1774 1776 1777 0
-1776 1774 1775 1777 0
-1777 1774 1775 1776 0
-1778 27 0
-1778 44 0
-1778 53 0
1778 -27 -44 -53 0
-1779 27 0
-1779 35 0
-1779 66 0
1779 -27 -35 -66 0
-1780 17 0
-1780 44 0
-1780 57 0
1780 -17 -44 -57 0
-1781 13 0
-1781 49 0
-1781 53 0
1781 -13 -49 -53 0
-1778 1779 1780 1781 0
-1779 1778 1780 1781 0
-1780 1778 1779 1781 0
-1781 1778 1779 1780 0
-1782 25 0
-1782 35 0
-1782 67 0
1782 -25 -35 -67 0
-1783 18 0
-1783 44 0
-1783 56 0
1783 -18 -44 -56 0
-1782 1783 0
-1783 1782 0
-1784 26 0
-1784 35 0
-1784 67 0
1784 -26 -35 -67 0
-1785 18 0
-1785 44 0
1785 -18 -44 0
-1786 18 0
-1786 35 0
-1786 73 0
1786 -18 -35 -73 0
-1787 13 0
-1787 35 0
-1787 76 0
1787 -13 -35 -76 0
-1784 1785 1786 1787 0
-1785 1784 1786 1787 0
-1786 1784 1785 1787 0
-1787 1784 1785 1786 0
-1788 27 0
-1788 35 0
-1788 67 0
1788 -27 -35 -67 0
-1789 18 0
-1789 44 0
-1789 57 0
1789 -18 -44 -57 0
-1788 1789 0
-1789 1788 0
-1790 25 0
-1790 35 0
-1790 68 0
1790 -25 -35 -68 0
-1791 19 0
-1791 44 0
-1791 56 0
1791 -19 -44 -56 0
-1792 13 0
-1792 47 0
-1792 56 0
1792 -13 -47 -56 0
-1790 1791 1792 0
-1791 1790 1792 0
-1792 1790 1791 0
-1793 26 0
-1793 35 0
-1793 68 0
1793 -26 -35 -68 0
-1794 19 0
-1794 44 0
1794 -19 -44 0
-1795 19 0
-1795 35 0
-1795 73 0
1795 -19 -35 -73 0
-1796 13 0
-1796 47 0
1796 -13 -47 0
-1793 1794 1795 1796 0
-1794 1793 1795 1796 0
-1795 1793 1794 1796 0
-1796 1793 1794 1795 0
-1797 27 0
-1797 35 0
-1797 68 0
1797 -27 -35 -68 0
-1798 19 0
-1798 44 0
-1798 57 0
1798 -19 -44 -57 0
-1799 13 0
-1799 47 0
-1799 57 0
1799 -13 -47 -57 0
-1800 13 0
-1800 35 0
-1800 77 0
1800 -13 -35 -77 0
-1797 1798 1799 1800 0
-1798 1797 1799 1800 0
-1799 1797 1798 1800 0
-1800 1797 1798 1799 0
-1801 25 0
-1801 45 0
-1801 53 0
1801 -25 -45 -53 0
-1802 25 0
-1802 35 0
-1802 69 0
1802 -25 -35 -69 0
-1803 17 0
-1803 45 0
-1803 56 0
1803 -17 -45 -56 0
-1801 1802 1803 0
-1802 1801 1803 0
-1803 1801 1802 0
-1804 26 0
-1804 45 0
-1804 53 0
1804 -26 -45 -53 0
-1805 26 0
-1805 35 0
-1805 69 0
1805 -26 -35 -69 0
-1806 17 0
-1806 45 0
1806 -17 -45 0
-1804 1805 1806 0
-1805 1804 1806 0
-1806 1804 1805 0
-1807 27 0
-1807 45 0
-1807 53 0
1807 -27 -45 -53 0
-1808 27 0
-1808 35 0
-1808 69 0
1808 -27 -35 -69 0
-1809 17 0
-1809 45 0
-1809 57 0
1809 -17 -45 -57 0
-1810 17 0
-1810 35 0
-1810 74 0
1810 -17 -35 -74 0
-1807 1808 1809 1810 0
-1808 1807 1809 1810 0
-1809 1807 1808 1810 0
-1810 1807 1808 1809 0
-1811 25 0
-1811 35 0
-1811 70 0
1811 -25 -35 -70 0
-1812 18 0
-1812 45 0
-1812 56 0
1812 -18 -45 -56 0
-1811 1812 0
-1812 1811 0
-1813 26 0
-1813 35 0
-1813 70 0
1813 -26 -35 -70 0
-1814 18 0
-1814 45 0
1814 -18 -45 0
-1813 1814 0
-1814 1813 0
-1815 27 0
-1815 35 0
-1815 70 0
1815 -27 -35 -70 0
-1816 18 0
-1816 45 0
-1816 57 0
1816 -18 -45 -57 0
-1817 18 0
-1817 35 0
-1817 74 0
1817 -18 -35 -74 0
-1815 1816 1817 0
-1816 1815 1817 0
-1817 1815 1816 0
-1818 25 0
-1818 35 0
-1818 71 0
1818 -25 -35 -71 0
-1819 19 0
-1819 45 0
-1819 56 0
1819 -19 -45 -56 0
-1818 1819 0
-1819 1818 0
-1820 26 0
-1820 35 0
-1820 71 0
1820 -26 -35 -71 0
-1821 19 0
-1821 45 0
1821 -19 -45 0
-1820 1821 0
-1821 1820 0
-1822 27 0
-1822 35 0
-1822 71 0
1822 -27 -35 -71 0
-1823 19 0
-1823 45 0
-1823 57 0
1823 -19 -45 -57 0
-1824 19 0
-1824 35 0
-1824 74 0
1824 -19 -35 -74 0
-1822 1823 1824 0
-1823 1822 1824 0
-1824 1822 1823 0
-1825 25 0
-1825 36 0
-1825 64 0
1825 -25 -36 -64 0
-1826 17 0
-1826 43 0
-1826 58 0
1826 -17 -43 -58 0
-1827 17 0
-1827 36 0
-1827 72 0
1827 -17 -36 -72 0
-1828 10 0
-1828 43 0
-1828 75 0
1828 -10 -43 -75 0
-1825 1826 1827 1828 0
-1826 1825 1827 1828 0
-1827 1825 1826 1828 0
-1828 1825 1826 1827 0
-1829 26 0
-1829 36 0
-1829 64 0
1829 -26 -36 -64 0
-1830 17 0
-1830 43 0
-1830 59 0
1830 -17 -43 -59 0
-1829 1830 0
-1830 1829 0
-1831 27 0
-1831 36 0
-1831 64 0
1831 -27 -36 -64 0
-1832 17 0
-1832 43 0
-1832 60 0
1832 -17 -43 -60 0
-1833 10 0
-1833 49 0
-1833 64 0
1833 -10 -49 -64 0
-1831 1832 1833 0
-1832 1831 1833 0
-1833 1831 1832 0
-1834 25 0
-1834 43 0
-1834 54 0
1834 -25 -43 -54 0
-1835 25 0
-1835 36 0
1835 -25 -36 0
-1836 18 0
-1836 43 0
-1836 58 0
1836 -18 -43 -58 0
-1837 18 0
-1837 36 0
-1837 72 0
1837 -18 -36 -72 0
-1834 1835 1836 1837 0
-1835 1834 1836 1837 0
-1836 1834 1835 1837 0
-1837 1834 1835 1836 0
-1838 26 0
-1838 43 0
-1838 54 0
1838 -26 -43 -54 0
-1839 26 0
-1839 36 0
1839 -26 -36 0
-1840 18 0
-1840 43 0
-1840 59 0
1840 -18 -43 -59 0
-1841 10 0
-1841 43 0
-1841 76 0
1841 -10 -43 -76 0
-1838 1839 1840 1841 0
-1839 1838 1840 1841 0
-1840 1838 1839 1841 0
-1841 1838 1839 1840 0
-1842 27 0
-1842 43 0
-1842 54 0
1842 -27 -43 -54 0
-1843 27 0
-1843 36 0
1843 -27 -36 0
-1844 18 0
-1844 43 0
-1844 60 0
1844 -18 -43 -60 0
-1845 10 0
-1845 49 0
1845 -10 -49 0
-1842 1843 1844 1845 0
-1843 1842 1844 1845 0
-1844 1842 1843 1845 0
-1845 1842 1843 1844 0
-1846 25 0
-1846 36 0
-1846 65 0
1846 -25 -36 -65 0
-1847 19 0
-1847 43 0
-1847 58 0
1847 -19 -43 -58 0
-1848 19 0
-1848 36 0
-1848 72 0
1848 -19 -36 -72 0
-1849 10 0
-1849 47 0
-1849 72 0
1849 -10 -47 -72 0
-1846 1847 1848 1849 0
-1847 1846 1848 1849 0
-1848 1846 1847 1849 0
-1849 1846 1847 1848 0
-1850 26 0
-1850 36 0
-1850 65 0
1850 -26 -36 -65 0
-1851 19 0
-1851 43 0
-1851 59 0
1851 -19 -43 -59 0
-1850 1851 0
-1851 1850 0
-1852 27 0
-1852 36 0
-1852 65 0
1852 -27 -36 -65 0
-1853 19 0
-1853 43 0
-1853 60 0
1853 -19 -43 -60 0
-1854 10 0
-1854 49 0
-1854 65 0
1854 -10 -49 -65 0
-1855 10 0
-1855 43 0
-1855 77 0
1855 -10 -43 -77 0
-1852 1853 1854 1855 0
-1853 1852 1854 1855 0
-1854 1852 1853 1855 0
-1855 1852 1853 1854 0
-1856 25 0
-1856 36 0
-1856 66 0
1856 -25 -36 -66 0
-1857 17 0
-1857 44 0
-1857 58 0
1857 -17 -44 -58 0
-1858 13 0
-1858 36 0
-1858 75 0
1858 -13 -36 -75 0
-1859 10 0
-1859 44 0
-1859 75 0
1859 -10 -44 -75 0
-1856 1857 1858 1859 0
-1857 1856 1858 1859 0
-1858 1856 1857 1859 0
-1859 1856 1857 1858 0
-1860 26 0
-1860 36 0
-1860 66 0
1860 -26 -36 -66 0
-1861 17 0
-1861 44 0
-1861 59 0
1861 -17 -44 -59 0
-1862 17 0
-1862 36 0
-1862 73 0
1862 -17 -36 -73 0
-1860 1861 1862 0
-1861 1860 1862 0
-1862 1860 1861 0
-1863 27 0
-1863 36 0
-1863 66 0
1863 -27 -36 -66 0
-1864 17 0
-1864 49 0
-1864 51 0
1864 -17 -49 -51 0
-1865 17 0
-1865 44 0
-1865 60 0
1865 -17 -44 -60 0
-1866 10 0
-1866 49 0
-1866 66 0
1866 -10 -49 -66 0
-1863 1864 1865 1866 0
-1864 1863 1865 1866 0
-1865 1863 1864 1866 0
-1866 1863 1864 1865 0
-1867 25 0
-1867 44 0
-1867 54 0
1867 -25 -44 -54 0
-1868 25 0
-1868 36 0
-1868 67 0
1868 -25 -36 -67 0
-1869 18 0
-1869 44 0
-1869 58 0
1869 -18 -44 -58 0
-1867 1868 1869 0
-1868 1867 1869 0
-1869 1867 1868 0
-1870 26 0
-1870 44 0
-1870 54 0
1870 -26 -44 -54 0
-1871 26 0
-1871 36 0
-1871 67 0
1871 -26 -36 -67 0
-1872 18 0
-1872 44 0
-1872 59 0
1872 -18 -44 -59 0
-1873 18 0
-1873 36 0
-1873 73 0
1873 -18 -36 -73 0
-1874 13 0
-1874 36 0
-1874 76 0
1874 -13 -36 -76 0
-1875 10 0
-1875 44 0
-1875 76 0
1875 -10 -44 -76 0
-1870 1871 1872 1873 1874 1875 0
-1871 1870 1872 1873 1874 1875 0
-1872 1870 1871 1873 1874 1875 0
-1873 1870 1871 1872 1874 1875 0
-1874 1870 1871 1872 1873 1875 0
-1875 1870 1871 1872 1873 1874 0
-1876 27 0
-1876 44 0
-1876 54 0
1876 -27 -44 -54 0
-1877 27 0
-1877 36 0
-1877 67 0
1877 -27 -36 -67 0
-1878 18 0
-1878 49 0
-1878 51 0
1878 -18 -49 -51 0
-1879 18 0
-1879 44 0
-1879 60 0
1879 -18 -44 -60 0
-1880 13 0
-1880 49 0
-1880 54 0
1880 -13 -49 -54 0
-1881 10 0
-1881 49 0
-1881 67 0
1881 -10 -49 -67 0
-1876 1877 1878 1879 1880 1881 0
-1877 1876 1878 1879 1880 1881 0
-1878 1876 1877 1879 1880 1881 0
-1879 1876 1877 1878 1880 1881 0
-1880 1876 1877 1878 1879 1881 0
-1881 1876 1877 1878 1879 1880 0
-1882 25 0
-1882 47 0
-1882 51 0
1882 -25 -47 -51 0
-1883 25 0
-1883 36 0
-1883 68 0
1883 -25 -36 -68 0
-1884 19 0
-1884 44 0
-1884 58 0
1884 -19 -44 -58 0
-1885 13 0
-1885 47 0
-1885 58 0
1885 -13 -47 -58 0
-1882 1883 1884 1885 0
-1883 1882 1884 1885 0
-1884 1882 1883 1885 0
-1885 1882 1883 1884 0
-1886 26 0
-1886 47 0
-1886 51 0
1886 -26 -47 -51 0
-1887 26 0
-1887 36 0
-1887 68 0
1887 -26 -36 -68 0
-1888 19 0
-1888 44 0
-1888 59 0
1888 -19 -44 -59 0
-1889 19 0
-1889 36 0
-1889 73 0
1889 -19 -36 -73 0
-1890 13 0
-1890 47 0
-1890 59 0
1890 -13 -47 -59 0
-1891 10 0
-1891 47 0
-1891 73 0
1891 -10 -47 -73 0
-1886 1887 1888 1889 1890 1891 0
-1887 1886 1888 1889 1890 1891 0
-1888 1886 1887 1889 1890 1891 0
-1889 1886 1887 1888 1890 1891 0
-1890 1886 1887 1888 1889 1891 0
-1891 1886 1887 1888 1889 1890 0
-1892 27 0
-1892 47 0
-1892 51 0
1892 -27 -47 -51 0
-1893 27 0
-1893 36 0
-1893 68 0
1893 -27 -36 -68 0
-1894 19 0
-1894 49 0
-1894 51 0
1894 -19 -49 -51 0
-1895 19 0
-1895 44 0
-1895 60 0
1895 -19 -44 -60 0
-1896 13 0
-1896 47 0
-1896 60 0
1896 -13 -47 -60 0
-1897 13 0
-1897 36 0
-1897 77 0
1897 -13 -36 -77 0
-1898 10 0
-1898 49 0
-1898 68 0
1898 -10 -49 -68 0
-1899 10 0
-1899 44 0
-1899 77 0
1899 -10 -44 -77 0
-1892 1893 1894 1895 1896 1897 1898 1899 0
-1893 1892 1894 1895 1896 1897 1898 1899 0
-1894 1892 1893 1895 1896 1897 1898 1899 0
-1895 1892 1893 1894 1896 1897 1898 1899 0
-1896 1892 1893 1894 1895 1897 1898 1899 0
-1897 1892 1893 1894 1895 1896 1898 1899 0
-1898 1892 1893 1894 1895 1896 1897 1899 0
-1899 1892 1893 1894 1895 1896 1897 1898 0
-1900 25 0
-1900 36 0
-1900 69 0
1900 -25 -36 -69 0
-1901 17 0
-1901 45 0
-1901 58 0
1901 -17 -45 -58 0
-1902 10 0
-1902 45 0
-1902 75 0
1902 -10 -45 -75 0
-1900 1901 1902 0
-1901 1900 1902 0
-1902 1900 1901 0
-1903 26 0
-1903 36 0
-1903 69 0
1903 -26 -36 -69 0
-1904 17 0
-1904 45 0
-1904 59 0
1904 -17 -45 -59 0
-1903 1904 0
-1904 1903 0
-1905 27 0
-1905 36 0
-1905 69 0
1905 -27 -36 -69 0
-1906 17 0
-1906 45 0
-1906 60 0
1906 -17 -45 -60 0
-1907 17 0
-1907 36 0
-1907 74 0
1907 -17 -36 -74 0
-1908 10 0
-1908 49 0
-1908 69 0
1908 -10 -49 -69 0
-1905 1906 1907 1908 0
-1906 1905 1907 1908 0
-1907 1905 1906 1908 0
-1908 1905 1906 1907 0
-1909 25 0
-1909 45 0
-1909 54 0
1909 -25 -45 -54 0
-1910 25 0
-1910 36 0
-1910 70 0
1910 -25 -36 -70 0
-1911 18 0
-1911 45 0
-1911 58 0
1911 -18 -45 -58 0
-1909 1910 1911 0
-1910 1909 1911 0
-1911 1909 1910 0
-1912 26 0
-1912 45 0
-1912 54 0
1912 -26 -45 -54 0
-1913 26 0
-1913 36 0
-1913 70 0
1913 -26 -36 -70 0
-1914 18 0
-1914 45 0
-1914 59 0
1914 -18 -45 -59 0
-1915 10 0
-1915 45 0
-1915 76 0
1915 -10 -45 -76 0
-1912 1913 1914 1915 0
-1913 1912 1914 1915 0
-1914 1912 1913 1915 0
-1915 1912 1913 1914 0
-1916 27 0
-1916 45 0
-1916 54 0
1916 -27 -45 -54 0
-1917 27 0
-1917 36 0
-1917 70 0
1917 -27 -36 -70 0
-1918 18 0
-1918 45 0
-1918 60 0
1918 -18 -45 -60 0
-1919 18 0
-1919 36 0
-1919 74 0
1919 -18 -36 -74 0
-1920 10 0
-1920 49 0
-1920 70 0
1920 -10 -49 -70 0
-1916 1917 1918 1919 1920 0
-1917 1916 1918 1919 1920 0
-1918 1916 1917 1919 1920 0
-1919 1916 1917 1918 1920 0
-1920 1916 1917 1918 1919 0
-1921 25 0
-1921 36 0
-1921 71 0
1921 -25 -36 -71 0
-1922 19 0
-1922 45 0
-1922 58 0
1922 -19 -45 -58 0
-1921 1922 0
-1922 1921 0
-1923 26 0
-1923 36 0
-1923 71 0
1923 -26 -36 -71 0
-1924 19 0
-1924 45 0
-1924 59 0
1924 -19 -45 -59 0
-1923 1924 0
-1924 1923 0
-1925 27 0
-1925 36 0
-1925 71 0
1925 -27 -36 -71 0
-1926 19 0
-1926 45 0
-1926 60 0
1926 -19 -45 -60 0
-1927 19 0
-1927 36 0
-1927 74 0
1927 -19 -36 -74 0
-1928 10 0
-1928 49 0
-1928 71 0
1928 -10 -49 -71 0
-1929 10 0
-1929 47 0
-1929 74 0
1929 -10 -47 -74 0
-1930 10 0
-1930 45 0
-1930 77 0
1930 -10 -45 -77 0
-1925 1926 1927 1928 1929 1930 0
-1926 1925 1927 1928 1929 1930 0
-1927 1925 1926 1928 1929 1930 0
-1928 1925 1926 1927 1929 1930 0
-1929 1925 1926 1927 1928 1930 0
-1930 1925 1926 1927 1928 1929 0
-1931 25 0
-1931 37 0
-1931 64 0
1931 -25 -37 -64 0
-1932 17 0
-1932 43 0
-1932 61 0
1932 -17 -43 -61 0
-1933 17 0
-1933 37 0
-1933 72 0
1933 -17 -37 -72 0
-1931 1932 1933 0
-1932 1931 1933 0
-1933 1931 1932 0
-1934 26 0
-1934 37 0
-1934 64 0
1934 -26 -37 -64 0
-1935 17 0
-1935 43 0
-1935 62 0
1935 -17 -43 -62 0
-1934 1935 0
-1935 1934 0
-1936 27 0
-1936 37 0
-1936 64 0
1936 -27 -37 -64 0
-1937 17 0
-1937 43 0
-1937 63 0
1937 -17 -43 -63 0
-1936 1937 0
-1937 1936 0
-1938 25 0
-1938 37 0
1938 -25 -37 0
-1939 18 0
-1939 43 0
-1939 61 0
1939 -18 -43 -61 0
-1940 18 0
-1940 37 0
-1940 72 0
1940 -18 -37 -72 0
-1938 1939 1940 0
-1939 1938 1940 0
-1940 1938 1939 0
-1941 26 0
-1941 37 0
1941 -26 -37 0
-1942 18 0
-1942 43 0
-1942 62 0
1942 -18 -43 -62 0
-1941 1942 0
-1942 1941 0
-1943 27 0
-1943 37 0
1943 -27 -37 0
-1944 18 0
-1944 43 0
-1944 63 0
1944 -18 -43 -63 0
-1943 1944 0
-1944 1943 0
-1945 25 0
-1945 43 0
-1945 55 0
1945 -25 -43 -55 0
-1946 25 0
-1946 37 0
-1946 65 0
1946 -25 -37 -65 0
-1947 19 0
-1947 43 0
-1947 61 0
1947 -19 -43 -61 0
-1948 19 0
-1948 37 0
-1948 72 0
1948 -19 -37 -72 0
-1945 1946 1947 1948 0
-1946 1945 1947 1948 0
-1947 1945 1946 1948 0
-1948 1945 1946 1947 0
-1949 26 0
-1949 43 0
-1949 55 0
1949 -26 -43 -55 0
-1950 26 0
-1950 37 0
-1950 65 0
1950 -26 -37 -65 0
-1951 19 0
-1951 43 0
-1951 62 0
1951 -19 -43 -62 0
-1949 1950 1951 0
-1950 1949 1951 0
-1951 1949 1950 0
-1952 27 0
-1952 43 0
-1952 55 0
1952 -27 -43 -55 0
-1953 27 0
-1953 37 0
-1953 65 0
1953 -27 -37 -65 0
-1954 19 0
-1954 43 0
-1954 63 0
1954 -19 -43 -63 0
-1952 1953 1954 0
-1953 1952 1954 0
-1954 1952 1953 0
-1955 25 0
-1955 37 0
-1955 66 0
1955 -25 -37 -66 0
-1956 17 0
-1956 44 0
-1956 61 0
1956 -17 -44 -61 0
-1957 13 0
-1957 37 0
-1957 75 0
1957 -13 -37 -75 0
-1955 1956 1957 0
-1956 1955 1957 0
-1957 1955 1956 0
-1958 26 0
-1958 37 0
-1958 66 0
1958 -26 -37 -66 0
-1959 17 0
-1959 44 0
-1959 62 0
1959 -17 -44 -62 0
-1960 17 0
-1960 37 0
-1960 73 0
1960 -17 -37 -73 0
-1958 1959 1960 0
-1959 1958 1960 0
-1960 1958 1959 0
-1961 27 0
-1961 37 0
-1961 66 0
1961 -27 -37 -66 0
-1962 17 0
-1962 44 0
-1962 63 0
1962 -17 -44 -63 0
-1961 1962 0
-1962 1961 0
-1963 25 0
-1963 37 0
-1963 67 0
1963 -25 -37 -67 0
-1964 18 0
-1964 44 0
-1964 61 0
1964 -18 -44 -61 0
-1963 1964 0
-1964 1963 0
-1965 26 0
-1965 37 0
-1965 67 0
1965 -26 -37 -67 0
-1966 18 0
-1966 44 0
-1966 62 0
1966 -18 -44 -62 0
-1967 18 0
-1967 37 0
-1967 73 0
1967 -18 -37 -73 0
-1968 13 0
-1968 37 0
-1968 76 0
1968 -13 -37 -76 0
-1965 1966 1967 1968 0
-1966 1965 1967 1968 0
-1967 1965 1966 1968 0
-1968 1965 1966 1967 0
-1969 27 0
-1969 37 0
-1969 67 0
1969 -27 -37 -67 0
-1970 18 0
-1970 44 0
-1970 63 0
1970 -18 -44 -63 0
-1969 1970 0
-1970 1969 0
-1971 25 0
-1971 44 0
-1971 55 0
1971 -25 -44 -55 0
-1972 25 0
-1972 37 0
-1972 68 0
1972 -25 -37 -68 0
-1973 19 0
-1973 44 0
-1973 61 0
1973 -19 -44 -61 0
-1974 13 0
-1974 47 0
-1974 61 0
1974 -13 -47 -61 0
-1971 1972 1973 1974 0
-1972 1971 1973 1974 0
-1973 1971 1972 1974 0
-1974 1971 1972 1973 0
-1975 26 0
-1975 44 0
-1975 55 0
1975 -26 -44 -55 0
-1976 26 0
-1976 37 0
-1976 68 0
1976 -26 -37 -68 0
-1977 19 0
-1977 44 0
-1977 62 0
1977 -19 -44 -62 0
-1978 19 0
-1978 37 0
-1978 73 0
1978 -19 -37 -73 0
-1979 13 0
-1979 47 0
-1979 62 0
1979 -13 -47 -62 0
-1975 1976 1977 1978 1979 0
-1976 1975 1977 1978 1979 0
-1977 1975 1976 1978 1979 0
-1978 1975 1976 1977 1979 0
-1979 1975 1976 1977 1978 0
-1980 27 0
-1980 44 0
-1980 55 0
1980 -27 -44 -55 0
-1981 27 0
-1981 37 0
-1981 68 0
1981 -27 -37 -68 0
-1982 19 0
-1982 44 0
-1982 63 0
1982 -19 -44 -63 0
-1983 13 0
-1983 49 0
-1983 55 0
1983 -13 -49 -55 0
-1984 13 0
-1984 47 0
-1984 63 0
1984 -13 -47 -63 0
-1985 13 0
-1985 37 0
-1985 77 0
1985 -13 -37 -77 0
-1980 1981 1982 1983 1984 1985 0
-1981 1980 1982 1983 1984 1985 0
-1982 1980 1981 1983 1984 1985 0
-1983 1980 1981 1982 1984 1985 0
-1984 1980 1981 1982 1983 1985 0
-1985 1980 1981 1982 1983 1984 0
-1986 25 0
-1986 37 0
-1986 69 0
1986 -25 -37 -69 0
-1987 17 0
-1987 45 0
-1987 61 0
1987 -17 -45 -61 0
-1986 1987 0
-1987 1986 0
-1988 26 0
-1988 37 0
-1988 69 0
1988 -26 -37 -69 0
-1989 17 0
-1989 45 0
-1989 62 0
1989 -17 -45 -62 0
-1988 1989 0
-1989 1988 0
-1990 27 0
-1990 37 0
-1990 69 0
1990 -27 -37 -69 0
-1991 17 0
-1991 49 0
-1991 52 0
1991 -17 -49 -52 0
-1992 17 0
-1992 45 0
-1992 63 0
1992 -17 -45 -63 0
-1993 17 0
-1993 37 0
-1993 74 0
1993 -17 -37 -74 0
-1990 1991 1992 1993 0
-1991 1990 1992 1993 0
-1992 1990 1991 1993 0
-1993 1990 1991 1992 0
-1994 25 0
-1994 37 0
-1994 70 0
1994 -25 -37 -70 0
-1995 18 0
-1995 45 0
-1995 61 0
1995 -18 -45 -61 0
-1994 1995 0
-1995 1994 0
-1996 26 0
-1996 37 0
-1996 70 0
1996 -26 -37 -70 0
-1997 18 0
-1997 45 0
-1997 62 0
1997 -18 -45 -62 0
-1996 1997 0
-1997 1996 0
-1998 27 0
-1998 37 0
-1998 70 0
1998 -27 -37 -70 0
-1999 18 0
-1999 49 0
-1999 52 0
1999 -18 -49 -52 0
-2000 18 0
-2000 45 0
-2000 63 0
2000 -18 -45 -63 0
-2001 18 0
-2001 37 0
-2001 74 0
2001 -18 -37 -74 0
-1998 1999 2000 2001 0
-1999 1998 2000 2001 0
-2000 1998 1999 2001 0
-2001 1998 1999 2000 0
-2002 25 0
-2002 47 0
-2002 52 0
2002 -25 -47 -52 0
-2003 25 0
-2003 45 0
-2003 55 0
2003 -25 -45 -55 0
-2004 25 0
-2004 37 0
-2004 71 0
2004 -25 -37 -71 0
-2005 19 0
-2005 45 0
-2005 61 0
2005 -19 -45 -61 0
-2002 2003 2004 2005 0
-2003 2002 2004 2005 0
-2004 2002 2003 2005 0
-2005 2002 2003 2004 0
-2006 26 0
-2006 47 0
-2006 52 0
2006 -26 -47 -52 0
-2007 26 0
-2007 45 0
-2007 55 0
2007 -26 -45 -55 0
-2008 26 0
-2008 37 0
-2008 71 0
2008 -26 -37 -71 0
-2009 19 0
-2009 45 0
-2009 62 0
2009 -19 -45 -62 0
-2006 2007 2008 2009 0
-2007 2006 2008 2009 0
-2008 2006 2007 2009 0
-2009 2006 2007 2008 0
-2010 27 0
-2010 47 0
-2010 52 0
2010 -27 -47 -52 0
-2011 27 0
-2011 45 0
-2011 55 0
2011 -27 -45 -55 0
-2012 27 0
-2012 37 0
-2012 71 0
2012 -27 -37 -71 0
-2013 19 0
-2013 49 0
-2013 52 0
2013 -19 -49 -52 0
-2014 19 0
-2014 45 0
-2014 63 0
2014 -19 -45 -63 0
-2015 19 0
-2015 37 0
-2015 74 0
2015 -19 -37 -74 0
-2010 2011 2012 2013 2014 2015 0
-2011 2010 2012 2013 2014 2015 0
-2012 2010 2011 2013 2014 2015 0
-2013 2010 2011 2012 2014 2015 0
-2014 2010 2011 2012 2013 2015 0
-2015 2010 2011 2012 2013 2014 0
-2016 28 0
-2016 46 0
-2016 50 0
2016 -28 -46 -50 0
-2017 28 0
-2017 38 0
-2017 53 0
2017 -28 -38 -53 0
-2018 28 0
-2018 30 0
-2018 64 0
2018 -28 -30 -64 0
-2019 20 0
-2019 48 0
-2019 50 0
2019 -20 -48 -50 0
-2020 20 0
-2020 38 0
-2020 56 0
2020 -20 -38 -56 0
-2021 20 0
-2021 30 0
-2021 72 0
2021 -20 -30 -72 0
-2016 2017 2018 2019 2020 2021 0
-2017 2016 2018 2019 2020 2021 0
-2018 2016 2017 2019 2020 2021 0
-2019 2016 2017 2018 2020 2021 0
-2020 2016 2017 2018 2019 2021 0
-2021 2016 2017 2018 2019 2020 0
-2022 21 0
-2022 46 0
-2022 50 0
2022 -21 -46 -50 0
-2023 21 0
-2023 38 0
-2023 53 0
2023 -21 -38 -53 0
-2024 21 0
-2024 30 0
-2024 64 0
2024 -21 -30 -64 0
-2025 20 0
-2025 38 0
2025 -20 -38 0
-2026 1 0
-2026 46 0
-2026 50 0
2026 -1 -46 -50 0
-2027 1 0
-2027 38 0
-2027 53 0
2027 -1 -38 -53 0
-2028 1 0
-2028 30 0
-2028 64 0
2028 -1 -30 -64 0
-2022 2023 2024 2025 2026 2027 2028 0
-2023 2022 2024 2025 2026 2027 2028 0
-2024 2022 2023 2025 2026 2027 2028 0
-2025 2022 2023 2024 2026 2027 2028 0
-2026 2022 2023 2024 2025 2027 2028 0
-2027 2022 2023 2024 2025 2026 2028 0
-2028 2022 2023 2024 2025 2026 2027 0
-2029 29 0
-2029 46 0
-2029 50 0
2029 -29 -46 -50 0
-2030 29 0
-2030 38 0
-2030 53 0
2030 -29 -38 -53 0
-2031 29 0
-2031 30 0
-2031 64 0
2031 -29 -30 -64 0
-2032 20 0
-2032 38 0
-2032 57 0
2032 -20 -38 -57 0
-2029 2030 2031 2032 0
-2030 2029 2031 2032 0
-2031 2029 2030 2032 0
-2032 2029 2030 2031 0
-2033 28 0
-2033 30 0
2033 -28 -30 0
-2034 21 0
-2034 48 0
-2034 50 0
2034 -21 -48 -50 0
-2035 21 0
-2035 38 0
-2035 56 0
2035 -21 -38 -56 0
-2036 21 0
-2036 30 0
-2036 72 0
2036 -21 -30 -72 0
-2033 2034 2035 2036 0
-2034 2033 2035 2036 0
-2035 2033 2034 2036 0
-2036 2033 2034 2035 0
-2037 21 0
-2037 38 0
2037 -21 -38 0
-2038 21 0
-2038 30 0
2038 -21 -30 0
-2039 1 0
-2039 30 0
2039 -1 -30 0
-2037 2038 2039 0
-2038 2037 2039 0
-2039 2037 2038 0
-2040 29 0
-2040 30 0
2040 -29 -30 0
-2041 21 0
-2041 38 0
-2041 57 0
2041 -21 -38 -57 0
-2040 2041 0
-2041 2040 0
-2042 28 0
-2042 30 0
-2042 65 0
2042 -28 -30 -65 0
-2043 22 0
-2043 48 0
-2043 50 0
2043 -22 -48 -50 0
-2044 22 0
-2044 38 0
-2044 56 0
2044 -22 -38 -56 0
-2045 22 0
-2045 30 0
-2045 72 0
2045 -22 -30 -72 0
-2042 2043 2044 2045 0
-2043 2042 2044 2045 0
-2044 2042 2043 2045 0
-2045 2042 2043 2044 0
-2046 22 0
-2046 38 0
2046 -22 -38 0
-2047 21 0
-2047 30 0
-2047 65 0
2047 -21 -30 -65 0
-2048 1 0
-2048 30 0
-2048 65 0
2048 -1 -30 -65 0
-2046 2047 2048 0
-2047 2046 2048 0
-2048 2046 2047 0
-2049 29 0
-2049 30 0
-2049 65 0
2049 -29 -30 -65 0
-2050 22 0
-2050 38 0
-2050 57 0
2050 -22 -38 -57 0
-2049 2050 0
-2050 2049 0
-2051 28 0
-2051 53 0
2051 -28 -53 0
-2052 28 0
-2052 30 0
-2052 66 0
2052 -28 -30 -66 0
-2053 20 0
-2053 56 0
2053 -20 -56 0
-2051 2052 2053 0
-2052 2051 2053 0
-2053 2051 2052 0
-2054 21 0
-2054 53 0
2054 -21 -53 0
-2055 21 0
-2055 30 0
-2055 66 0
2055 -21 -30 -66 0
-2056 20 0
2056 -20 0
-2057 20 0
-2057 30 0
-2057 73 0
2057 -20 -30 -73 0
-2058 1 0
-2058 53 0
2058 -1 -53 0
-2059 1 0
-2059 30 0
-2059 66 0
2059 -1 -30 -66 0
-2054 2055 2056 2057 2058 2059 0
-2055 2054 2056 2057 2058 2059 0
-2056 2054 2055 2057 2058 2059 0
-2057 2054 2055 2056 2058 2059 0
-2058 2054 2055 2056 2057 2059 0
-2059 2054 2055 2056 2057 2058 0
-2060 29 0
-2060 53 0
2060 -29 -53 0
-2061 29 0
-2061 30 0
-2061 66 0
2061 -29 -30 -66 0
-2062 20 0
-2062 57 0
2062 -20 -57 0
-2060 2061 2062 0
-2061 2060 2062 0
-2062 2060 2061 0
-2063 28 0
-2063 30 0
-2063 67 0
2063 -28 -30 -67 0
-2064 21 0
-2064 56 0
2064 -21 -56 0
-2063 2064 0
-2064 2063 0
-2065 21 0
2065 -21 0
-2066 21 0
-2066 30 0
-2066 73 0
2066 -21 -30 -73 0
-2067 21 0
-2067 30 0
-2067 67 0
2067 -21 -30 -67 0
-2068 1 0
-2068 30 0
-2068 67 0
2068 -1 -30 -67 0
-2065 2066 2067 2068 0
-2066 2065 2067 2068 0
-2067 2065 2066 2068 0
-2068 2065 2066 2067 0
-2069 29 0
-2069 30 0
-2069 67 0
2069 -29 -30 -67 0
-2070 21 0
-2070 57 0
2070 -21 -57 0
-2069 2070 0
-2070 2069 0
-2071 28 0
-2071 30 0
-2071 68 0
2071 -28 -30 -68 0
-2072 22 0
-2072 56 0
2072 -22 -56 0
-2071 2072 0
-2072 2071 0
-2073 22 0
2073 -22 0
-2074 22 0
-2074 30 0
-2074 73 0
2074 -22 -30 -73 0
-2075 21 0
-2075 30 0
-2075 68 0
2075 -21 -30 -68 0
-2076 1 0
-2076 30 0
-2076 68 0
2076 -1 -30 -68 0
-2073 2074 2075 2076 0
-2074 2073 2075 2076 0
-2075 2073 2074 2076 0
-2076 2073 2074 2075 0
-2077 29 0
-2077 30 0
-2077 68 0
2077 -29 -30 -68 0
-2078 22 0
-2078 57 0
2078 -22 -57 0
-2077 2078 0
-2078 2077 0
-2079 28 0
-2079 39 0
-2079 53 0
2079 -28 -39 -53 0
-2080 28 0
-2080 30 0
-2080 69 0
2080 -28 -30 -69 0
-2081 20 0
-2081 39 0
-2081 56 0
2081 -20 -39 -56 0
-2082 14 0
-2082 48 0
-2082 53 0
2082 -14 -48 -53 0
-2083 14 0
-2083 46 0
-2083 56 0
2083 -14 -46 -56 0
-2084 14 0
-2084 30 0
-2084 75 0
2084 -14 -30 -75 0
-2079 2080 2081 2082 2083 2084 0
-2080 2079 2081 2082 2083 2084 0
-2081 2079 2080 2082 2083 2084 0
-2082 2079 2080 2081 2083 2084 0
-2083 2079 2080 2081 2082 2084 0
-2084 2079 2080 2081 2082 2083 0
-2085 21 0
-2085 39 0
-2085 53 0
2085 -21 -39 -53 0
-2086 21 0
-2086 30 0
-2086 69 0
2086 -21 -30 -69 0
-2087 20 0
-2087 39 0
2087 -20 -39 0
-2088 14 0
-2088 46 0
2088 -14 -46 0
-2089 1 0
-2089 39 0
-2089 53 0
2089 -1 -39 -53 0
-2090 1 0
-2090 30 0
-2090 69 0
2090 -1 -30 -69 0
-2085 2086 2087 2088 2089 2090 0
-2086 2085 2087 2088 2089 2090 0
-2087 2085 2086 2088 2089 2090 0
-2088 2085 2086 2087 2089 2090 0
-2089 2085 2086 2087 2088 2090 0
-2090 2085 2086 2087 2088 2089 0
-2091 29 0
-2091 39 0
-2091 53 0
2091 -29 -39 -53 0
-2092 29 0
-2092 30 0
-2092 69 0
2092 -29 -30 -69 0
-2093 20 0
-2093 39 0
-2093 57 0
2093 -20 -39 -57 0
-2094 20 0
-2094 30 0
-2094 74 0
2094 -20 -30 -74 0
-2095 14 0
-2095 46 0
-2095 57 0
2095 -14 -46 -57 0
-2091 2092 2093 2094 2095 0
-2092 2091 2093 2094 2095 0
-2093 2091 2092 2094 2095 0
-2094 2091 2092 2093 2095 0
-2095 2091 2092 2093 2094 0
-2096 28 0
-2096 30 0
-2096 70 0
2096 -28 -30 -70 0
-2097 21 0
-2097 39 0
-2097 56 0
2097 -21 -39 -56 0
-2096 2097 0
-2097 2096 0
-2098 21 0
-2098 39 0
2098 -21 -39 0
-2099 21 0
-2099 30 0
-2099 70 0
2099 -21 -30 -70 0
-2100 14 0
-2100 30 0
-2100 76 0
2100 -14 -30 -76 0
-2101 1 0
-2101 30 0
-2101 70 0
2101 -1 -30 -70 0
-2098 2099 2100 2101 0
-2099 2098 2100 2101 0
-2100 2098 2099 2101 0
-2101 2098 2099 2100 0
-2102 29 0
-2102 30 0
-2102 70 0
2102 -29 -30 -70 0
-2103 21 0
-2103 39 0
-2103 57 0
2103 -21 -39 -57 0
-2104 21 0
-2104 30 0
-2104 74 0
2104 -21 -30 -74 0
-2102 2103 2104 0
-2103 2102 2104 0
-2104 2102 2103 0
-2105 28 0
-2105 30 0
-2105 71 0
2105 -28 -30 -71 0
-2106 22 0
-2106 39 0
-2106 56 0
2106 -22 -39 -56 0
-2105 2106 0
-2106 2105 0
-2107 22 0
-2107 39 0
2107 -22 -39 0
-2108 21 0
-2108 30 0
-2108 71 0
2108 -21 -30 -71 0
-2109 1 0
-2109 30 0
-2109 71 0
2109 -1 -30 -71 0
-2107 2108 2109 0
-2108 2107 2109 0
-2109 2107 2108 0
-2110 29 0
-2110 30 0
-2110 71 0
2110 -29 -30 -71 0
-2111 22 0
-2111 39 0
-2111 57 0
2111 -22 -39 -57 0
-2112 22 0
-2112 30 0
-2112 74 0
2112 -22 -30 -74 0
-2113 14 0
-2113 30 0
-2113 77 0
2113 -14 -30 -77 0
-2110 2111 2112 2113 0
-2111 2110 2112 2113 0
-2112 2110 2111 2113 0
-2113 2110 2111 2112 0
-2114 28 0
-2114 64 0
2114 -28 -64 0
-2115 20 0
-2115 72 0
2115 -20 -72 0
-2116 20 0
-2116 38 0
-2116 58 0
2116 -20 -38 -58 0
-2114 2115 2116 0
-2115 2114 2116 0
-2116 2114 2115 0
-2117 21 0
-2117 64 0
2117 -21 -64 0
-2118 20 0
-2118 38 0
-2118 59 0
2118 -20 -38 -59 0
-2119 1 0
-2119 64 0
2119 -1 -64 0
-2117 2118 2119 0
-2118 2117 2119 0
-2119 2117 2118 0
-2120 29 0
-2120 64 0
2120 -29 -64 0
-2121 20 0
-2121 38 0
-2121 60 0
2121 -20 -38 -60 0
-2120 2121 0
-2121 2120 0
-2122 28 0
2122 -28 0
-2123 28 0
-2123 38 0
-2123 54 0
2123 -28 -38 -54 0
-2124 21 0
-2124 72 0
2124 -21 -72 0
-2125 21 0
-2125 38 0
-2125 58 0
2125 -21 -38 -58 0
-2122 2123 2124 2125 0
-2123 2122 2124 2125 0
-2124 2122 2123 2125 0
-2125 2122 2123 2124 0
-2126 21 0
2126 -21 0
-2127 21 0
-2127 38 0
-2127 59 0
2127 -21 -38 -59 0
-2128 21 0
-2128 38 0
-2128 54 0
2128 -21 -38 -54 0
-2129 1 0
2129 -1 0
-2130 1 0
-2130 38 0
-2130 54 0
2130 -1 -38 -54 0
-2126 2127 2128 2129 2130 0
-2127 2126 2128 2129 2130 0
-2128 2126 2127 2129 2130 0
-2129 2126 2127 2128 2130 0
-2130 2126 2127 2128 2129 0
-2131 29 0
2131 -29 0
-2132 29 0
-2132 38 0
-2132 54 0
2132 -29 -38 -54 0
-2133 21 0
-2133 38 0
-2133 60 0
2133 -21 -38 -60 0
-2131 2132 2133 0
-2132 2131 2133 0
-2133 2131 2132 0
-2134 28 0
-2134 65 0
2134 -28 -65 0
-2135 22 0
-2135 72 0
2135 -22 -72 0
-2136 22 0
-2136 38 0
-2136 58 0
2136 -22 -38 -58 0
-2134 2135 2136 0
-2135 2134 2136 0
-2136 2134 2135 0
-2137 22 0
-2137 38 0
-2137 59 0
2137 -22 -38 -59 0
-2138 21 0
-2138 65 0
2138 -21 -65 0
-2139 1 0
-2139 65 0
2139 -1 -65 0
-2137 2138 2139 0
-2138 2137 2139 0
-2139 2137 2138 0
-2140 29 0
-2140 65 0
2140 -29 -65 0
-2141 22 0
-2141 38 0
-2141 60 0
2141 -22 -38 -60 0
-2140 2141 0
-2141 2140 0
-2142 28 0
-2142 66 0
2142 -28 -66 0
-2143 28 0
-2143 46 0
-2143 51 0
2143 -28 -46 -51 0
-2144 20 0
-2144 58 0
2144 -20 -58 0
-2145 20 0
-2145 48 0
-2145 51 0
2145 -20 -48 -51 0
-2142 2143 2144 2145 0
-2143 2142 2144 2145 0
-2144 2142 2143 2145 0
-2145 2142 2143 2144 0
-2146 21 0
-2146 66 0
2146 -21 -66 0
-2147 21 0
-2147 46 0
-2147 51 0
2147 -21 -46 -51 0
-2148 20 0
-2148 73 0
2148 -20 -73 0
-2149 20 0
-2149 59 0
2149 -20 -59 0
-2150 1 0
-2150 66 0
2150 -1 -66 0
-2151 1 0
-2151 46 0
-2151 51 0
2151 -1 -46 -51 0
-2146 2147 2148 2149 2150 2151 0
-2147 2146 2148 2149 2150 2151 0
-2148 2146 2147 2149 2150 2151 0
-2149 2146 2147 2148 2150 2151 0
-2150 2146 2147 2148 2149 2151 0
-2151 2146 2147 2148 2149 2150 0
-2152 29 0
-2152 66 0
2152 -29 -66 0
-2153 29 0
-2153 46 0
-2153 51 0
2153 -29 -46 -51 0
-2154 20 0
-2154 60 0
2154 -20 -60 0
-2152 2153 2154 0
-2153 2152 2154 0
-2154 2152 2153 0
-2155 28 0
-2155 67 0
2155 -28 -67 0
-2156 28 0
-2156 54 0
2156 -28 -54 0
-2157 21 0
-2157 58 0
2157 -21 -58 0
-2158 21 0
-2158 48 0
-2158 51 0
2158 -21 -48 -51 0
-2155 2156 2157 2158 0
-2156 2155 2157 2158 0
-2157 2155 2156 2158 0
-2158 2155 2156 2157 0
-2159 21 0
-2159 73 0
2159 -21 -73 0
-2160 21 0
-2160 67 0
2160 -21 -67 0
-2161 21 0
-2161 59 0
2161 -21 -59 0
-2162 21 0
-2162 54 0
2162 -21 -54 0
-2163 1 0
-2163 67 0
2163 -1 -67 0
-2164 1 0
-2164 54 0
2164 -1 -54 0
-2159 2160 2161 2162 2163 2164 0
-2160 2159 2161 2162 2163 2164 0
-2161 2159 2160 2162 2163 2164 0
-2162 2159 2160 2161 2163 2164 0
-2163 2159 2160 2161 2162 2164 0
-2164 2159 2160 2161 2162 2163 0
-2165 29 0
-2165 67 0
2165 -29 -67 0
-2166 29 0
-2166 54 0
2166 -29 -54 0
-2167 21 0
-2167 60 0
2167 -21 -60 0
-2165 2166 2167 0
-2166 2165 2167 0
-2167 2165 2166 0
-2168 28 0
-2168 68 0
2168 -28 -68 0
-2169 22 0
-2169 58 0
2169 -22 -58 0
-2170 22 0
-2170 48 0
-2170 51 0
2170 -22 -48 -51 0
-2168 2169 2170 0
-2169 2168 2170 0
-2170 2168 2169 0
-2171 22 0
-2171 73 0
2171 -22 -73 0
-2172 22 0
-2172 59 0
2172 -22 -59 0
-2173 21 0
-2173 68 0
2173 -21 -68 0
-2174 1 0
-2174 68 0
2174 -1 -68 0
-2171 2172 2173 2174 0
-2172 2171 2173 2174 0
-2173 2171 2172 2174 0
-2174 2171 2172 2173 0
-2175 29 0
-2175 68 0
2175 -29 -68 0
-2176 22 0
-2176 60 0
2176 -22 -60 0
-2175 2176 0
-2176 2175 0
-2177 28 0
-2177 69 0
2177 -28 -69 0
-2178 20 0
-2178 39 0
-2178 58 0
2178 -20 -39 -58 0
-2179 14 0
-2179 75 0
2179 -14 -75 0
-2180 14 0
-2180 46 0
-2180 58 0
2180 -14 -46 -58 0
-2177 2178 2179 2180 0
-2178 2177 2179 2180 0
-2179 2177 2178 2180 0
-2180 2177 2178 2179 0
-2181 21 0
-2181 69 0
2181 -21 -69 0
-2182 20 0
-2182 39 0
-2182 59 0
2182 -20 -39 -59 0
-2183 14 0
-2183 46 0
-2183 59 0
2183 -14 -46 -59 0
-2184 1 0
-2184 69 0
2184 -1 -69 0
-2181 2182 2183 2184 0
-2182 2181 2183 2184 0
-2183 2181 2182 2184 0
-2184 2181 2182 2183 0
-2185 29 0
-2185 69 0
2185 -29 -69 0
-2186 20 0
-2186 74 0
2186 -20 -74 0
-2187 20 0
-2187 39 0
-2187 60 0
2187 -20 -39 -60 0
-2188 14 0
-2188 46 0
-2188 60 0
2188 -14 -46 -60 0
-2185 2186 2187 2188 0
-2186 2185 2187 2188 0
-2187 2185 2186 2188 0
-2188 2185 2186 2187 0
-2189 28 0
-2189 70 0
2189 -28 -70 0
-2190 28 0
-2190 39 0
-2190 54 0
2190 -28 -39 -54 0
-2191 21 0
-2191 39 0
-2191 58 0
2191 -21 -39 -58 0
-2192 14 0
-2192 48 0
-2192 54 0
2192 -14 -48 -54 0
-2189 2190 2191 2192 0
-2190 2189 2191 2192 0
-2191 2189 2190 2192 0
-2192 2189 2190 2191 0
-2193 21 0
-2193 70 0
2193 -21 -70 0
-2194 21 0
-2194 39 0
-2194 59 0
2194 -21 -39 -59 0
-2195 21 0
-2195 39 0
-2195 54 0
2195 -21 -39 -54 0
-2196 14 0
-2196 76 0
2196 -14 -76 0
-2197 1 0
-2197 70 0
2197 -1 -70 0
-2198 1 0
-2198 39 0
-2198 54 0
2198 -1 -39 -54 0
-2193 2194 2195 2196 2197 2198 0
-2194 2193 2195 2196 2197 2198 0
-2195 2193 2194 2196 2197 2198 0
-2196 2193 2194 2195 2197 2198 0
-2197 2193 2194 2195 2196 2198 0
-2198 2193 2194 2195 2196 2197 0
-2199 29 0
-2199 70 0
2199 -29 -70 0
-2200 29 0
-2200 39 0
-2200 54 0
2200 -29 -39 -54 0
-2201 21 0
-2201 74 0
2201 -21 -74 0
-2202 21 0
-2202 39 0
-2202 60 0
2202 -21 -39 -60 0
-2199 2200 2201 2202 0
-2200 2199 2201 2202 0
-2201 2199 2200 2202 0
-2202 2199 2200 2201 0
-2203 28 0
-2203 71 0
2203 -28 -71 0
-2204 22 0
-2204 39 0
-2204 58 0
2204 -22 -39 -58 0
-2203 2204 0
-2204 2203 0
-2205 22 0
-2205 39 0
-2205 59 0
2205 -22 -39 -59 0
-2206 21 0
-2206 71 0
2206 -21 -71 0
-2207 1 0
-2207 71 0
2207 -1 -71 0
-2205 2206 2207 0
-2206 2205 2207 0
-2207 2205 2206 0
-2208 29 0
-2208 71 0
2208 -29 -71 0
-2209 22 0
-2209 74 0
2209 -22 -74 0
-2210 22 0
-2210 39 0
-2210 60 0
2210 -22 -39 -60 0
-2211 14 0
-2211 77 0
2211 -14 -77 0
-2208 2209 2210 2211 0
-2209 2208 2210 2211 0
-2210 2208 2209 2211 0
-2211 2208 2209 2210 0
-2212 28 0
-2212 31 0
-2212 64 0
2212 -28 -31 -64 0
-2213 20 0
-2213 38 0
-2213 61 0
2213 -20 -38 -61 0
-2214 20 0
-2214 31 0
-2214 72 0
2214 -20 -31 -72 0
-2215 11 0
-2215 48 0
-2215 64 0
2215 -11 -48 -64 0
-2216 11 0
-2216 46 0
-2216 72 0
2216 -11 -46 -72 0
-2217 11 0
-2217 38 0
-2217 75 0
2217 -11 -38 -75 0
-2212 2213 2214 2215 2216 2217 0
-2213 2212 2214 2215 2216 2217 0
-2214 2212 2213 2215 2216 2217 0
-2215 2212 2213 2214 2216 2217 0
-2216 2212 2213 2214 2215 2217 0
-2217 2212 2213 2214 2215 2216 0
-2218 21 0
-2218 31 0
-2218 64 0
2218 -21 -31 -64 0
-2219 20 0
-2219 38 0
-2219 62 0
2219 -20 -38 -62 0
-2220 1 0
-2220 31 0
-2220 64 0
2220 -1 -31 -64 0
-2218 2219 2220 0
-2219 2218 2220 0
-2220 2218 2219 0
-2221 29 0
-2221 31 0
-2221 64 0
2221 -29 -31 -64 0
-2222 20 0
-2222 38 0
-2222 63 0
2222 -20 -38 -63 0
-2221 2222 0
-2222 2221 0
-2223 28 0
-2223 31 0
2223 -28 -31 0
-2224 21 0
-2224 38 0
-2224 61 0
2224 -21 -38 -61 0
-2225 21 0
-2225 31 0
-2225 72 0
2225 -21 -31 -72 0
-2226 11 0
-2226 48 0
2226 -11 -48 0
-2223 2224 2225 2226 0
-2224 2223 2225 2226 0
-2225 2223 2224 2226 0
-2226 2223 2224 2225 0
-2227 21 0
-2227 38 0
-2227 62 0
2227 -21 -38 -62 0
-2228 21 0
-2228 31 0
2228 -21 -31 0
-2229 11 0
-2229 38 0
-2229 76 0
2229 -11 -38 -76 0
-2230 1 0
-2230 31 0
2230 -1 -31 0
-2227 2228 2229 2230 0
-2228 2227 2229 2230 0
-2229 2227 2228 2230 0
-2230 2227 2228 2229 0
-2231 29 0
-2231 31 0
2231 -29 -31 0
-2232 21 0
-2232 38 0
-2232 63 0
2232 -21 -38 -63 0
-2231 2232 0
-2232 2231 0
-2233 28 0
-2233 38 0
-2233 55 0
2233 -28 -38 -55 0
-2234 28 0
-2234 31 0
-2234 65 0
2234 -28 -31 -65 0
-2235 22 0
-2235 38 0
-2235 61 0
2235 -22 -38 -61 0
-2236 22 0
-2236 31 0
-2236 72 0
2236 -22 -31 -72 0
-2237 11 0
-2237 48 0
-2237 65 0
2237 -11 -48 -65 0
-2233 2234 2235 2236 2237 0
-2234 2233 2235 2236 2237 0
-2235 2233 2234 2236 2237 0
-2236 2233 2234 2235 2237 0
-2237 2233 2234 2235 2236 0
-2238 22 0
-2238 38 0
-2238 62 0
2238 -22 -38 -62 0
-2239 21 0
-2239 38 0
-2239 55 0
2239 -21 -38 -55 0
-2240 21 0
-2240 31 0
-2240 65 0
2240 -21 -31 -65 0
-2241 1 0
-2241 38 0
-2241 55 0
2241 -1 -38 -55 0
-2242 1 0
-2242 31 0
-2242 65 0
2242 -1 -31 -65 0
-2238 2239 2240 2241 2242 0
-2239 2238 2240 2241 2242 0
-2240 2238 2239 2241 2242 0
-2241 2238 2239 2240 2242 0
-2242 2238 2239 2240 2241 0
-2243 29 0
-2243 38 0
-2243 55 0
2243 -29 -38 -55 0
-2244 29 0
-2244 31 0
-2244 65 0
2244 -29 -31 -65 0
-2245 22 0
-2245 38 0
-2245 63 0
2245 -22 -38 -63 0
-2246 11 0
-2246 38 0
-2246 77 0
2246 -11 -38 -77 0
-2243 2244 2245 2246 0
-2244 2243 2245 2246 0
-2245 2243 2244 2246 0
-2246 2243 2244 2245 0
-2247 28 0
-2247 31 0
-2247 66 0
2247 -28 -31 -66 0
-2248 20 0
-2248 61 0
2248 -20 -61 0
-2249 11 0
-2249 75 0
2249 -11 -75 0
-2250 11 0
-2250 48 0
-2250 66 0
2250 -11 -48 -66 0
-2247 2248 2249 2250 0
-2248 2247 2249 2250 0
-2249 2247 2248 2250 0
-2250 2247 2248 2249 0
-2251 21 0
-2251 31 0
-2251 66 0
2251 -21 -31 -66 0
-2252 20 0
-2252 62 0
2252 -20 -62 0
-2253 20 0
-2253 31 0
-2253 73 0
2253 -20 -31 -73 0
-2254 11 0
-2254 46 0
-2254 73 0
2254 -11 -46 -73 0
-2255 1 0
-2255 31 0
-2255 66 0
2255 -1 -31 -66 0
-2251 2252 2253 2254 2255 0
-2252 2251 2253 2254 2255 0
-2253 2251 2252 2254 2255 0
-2254 2251 2252 2253 2255 0
-2255 2251 2252 2253 2254 0
-2256 29 0
-2256 31 0
-2256 66 0
2256 -29 -31 -66 0
-2257 20 0
-2257 63 0
2257 -20 -63 0
-2256 2257 0
-2257 2256 0
-2258 28 0
-2258 31 0
-2258 67 0
2258 -28 -31 -67 0
-2259 21 0
-2259 61 0
2259 -21 -61 0
-2260 11 0
-2260 48 0
-2260 67 0
2260 -11 -48 -67 0
-2258 2259 2260 0
-2259 2258 2260 0
-2260 2258 2259 0
-2261 21 0
-2261 62 0
2261 -21 -62 0
-2262 21 0
-2262 31 0
-2262 73 0
2262 -21 -31 -73 0
-2263 21 0
-2263 31 0
-2263 67 0
2263 -21 -31 -67 0
-2264 11 0
-2264 76 0
2264 -11 -76 0
-2265 1 0
-2265 31 0
-2265 67 0
2265 -1 -31 -67 0
-2261 2262 2263 2264 2265 0
-2262 2261 2263 2264 2265 0
-2263 2261 2262 2264 2265 0
-2264 2261 2262 2263 2265 0
-2265 2261 2262 2263 2264 0
-2266 29 0
-2266 31 0
-2266 67 0
2266 -29 -31 -67 0
-2267 21 0
-2267 63 0
2267 -21 -63 0
-2266 2267 0
-2267 2266 0
-2268 28 0
-2268 55 0
2268 -28 -55 0
-2269 28 0
-2269 31 0
-2269 68 0
2269 -28 -31 -68 0
-2270 22 0
-2270 61 0
2270 -22 -61 0
-2271 11 0
-2271 48 0
-2271 68 0
2271 -11 -48 -68 0
-2268 2269 2270 2271 0
-2269 2268 2270 2271 0
-2270 2268 2269 2271 0
-2271 2268 2269 2270 0
-2272 22 0
-2272 62 0
2272 -22 -62 0
-2273 22 0
-2273 31 0
-2273 73 0
2273 -22 -31 -73 0
-2274 21 0
-2274 55 0
2274 -21 -55 0
-2275 21 0
-2275 31 0
-2275 68 0
2275 -21 -31 -68 0
-2276 1 0
-2276 55 0
2276 -1 -55 0
-2277 1 0
-2277 31 0
-2277 68 0
2277 -1 -31 -68 0
-2272 2273 2274 2275 2276 2277 0
-2273 2272 2274 2275 2276 2277 0
-2274 2272 2273 2275 2276 2277 0
-2275 2272 2273 2274 2276 2277 0
-2276 2272 2273 2274 2275 2277 0
-2277 2272 2273 2274 2275 2276 0
-2278 29 0
-2278 55 0
2278 -29 -55 0
-2279 29 0
-2279 31 0
-2279 68 0
2279 -29 -31 -68 0
-2280 22 0
-2280 63 0
2280 -22 -63 0
-2281 11 0
-2281 77 0
2281 -11 -77 0
-2278 2279 2280 2281 0
-2279 2278 2280 2281 0
-2280 2278 2279 2281 0
-2281 2278 2279 2280 0
-2282 28 0
-2282 46 0
-2282 52 0
2282 -28 -46 -52 0
-2283 28 0
-2283 31 0
-2283 69 0
2283 -28 -31 -69 0
-2284 20 0
-2284 48 0
-2284 52 0
2284 -20 -48 -52 0
-2285 20 0
-2285 39 0
-2285 61 0
2285 -20 -39 -61 0
-2286 14 0
-2286 46 0
-2286 61 0
2286 -14 -46 -61 0
-2287 14 0
-2287 31 0
-2287 75 0
2287 -14 -31 -75 0
-2288 11 0
-2288 48 0
-2288 69 0
2288 -11 -48 -69 0
-2289 11 0
-2289 39 0
-2289 75 0
2289 -11 -39 -75 0
-2282 2283 2284 2285 2286 2287 2288 2289 0
-2283 2282 2284 2285 2286 2287 2288 2289 0
-2284 2282 2283 2285 2286 2287 2288 2289 0
-2285 2282 2283 2284 2286 2287 2288 2289 0
-2286 2282 2283 2284 2285 2287 2288 2289 0
-2287 2282 2283 2284 2285 2286 2288 2289 0
-2288 2282 2283 2284 2285 2286 2287 2289 0
-2289 2282 2283 2284 2285 2286 2287 2288 0
-2290 21 0
-2290 46 0
-2290 52 0
2290 -21 -46 -52 0
-2291 21 0
-2291 31 0
-2291 69 0
2291 -21 -31 -69 0
-2292 20 0
-2292 39 0
-2292 62 0
2292 -20 -39 -62 0
-2293 14 0
-2293 46 0
-2293 62 0
2293 -14 -46 -62 0
-2294 1 0
-2294 46 0
-2294 52 0
2294 -1 -46 -52 0
-2295 1 0
-2295 31 0
-2295 69 0
2295 -1 -31 -69 0
-2290 2291 2292 2293 2294 2295 0
-2291 2290 2292 2293 2294 2295 0
-2292 2290 2291 2293 2294 2295 0
-2293 2290 2291 2292 2294 2295 0
-2294 2290 2291 2292 2293 2295 0
-2295 2290 2291 2292 2293 2294 0
-2296 29 0
-2296 46 0
-2296 52 0
2296 -29 -46 -52 0
-2297 29 0
-2297 31 0
-2297 69 0
2297 -29 -31 -69 0
-2298 20 0
-2298 39 0
-2298 63 0
2298 -20 -39 -63 0
-2299 20 0
-2299 31 0
-2299 74 0
2299 -20 -31 -74 0
-2300 14 0
-2300 46 0
-2300 63 0
2300 -14 -46 -63 0
-2301 11 0
-2301 46 0
-2301 74 0
2301 -11 -46 -74 0
-2296 2297 2298 2299 2300 2301 0
-2297 2296 2298 2299 2300 2301 0
-2298 2296 2297 2299 2300 2301 0
-2299 2296 2297 2298 2300 2301 0
-2300 2296 2297 2298 2299 2301 0
-2301 2296 2297 2298 2299 2300 0
-2302 28 0
-2302 31 0
-2302 70 0
2302 -28 -31 -70 0
-2303 21 0
-2303 48 0
-2303 52 0
2303 -21 -48 -52 0
-2304 21 0
-2304 39 0
-2304 61 0
2304 -21 -39 -61 0
-2305 11 0
-2305 48 0
-2305 70 0
2305 -11 -48 -70 0
-2302 2303 2304 2305 0
-2303 2302 2304 2305 0
-2304 2302 2303 2305 0
-2305 2302 2303 2304 0
-2306 21 0
-2306 39 0
-2306 62 0
2306 -21 -39 -62 0
-2307 21 0
-2307 31 0
-2307 70 0
2307 -21 -31 -70 0
-2308 14 0
-2308 31 0
-2308 76 0
2308 -14 -31 -76 0
-2309 11 0
-2309 39 0
-2309 76 0
2309 -11 -39 -76 0
-2310 1 0
-2310 31 0
-2310 70 0
2310 -1 -31 -70 0
-2306 2307 2308 2309 2310 0
-2307 2306 2308 2309 2310 0
-2308 2306 2307 2309 2310 0
-2309 2306 2307 2308 2310 0
-2310 2306 2307 2308 2309 0
-2311 29 0
-2311 31 0
-2311 70 0
2311 -29 -31 -70 0
-2312 21 0
-2312 39 0
-2312 63 0
2312 -21 -39 -63 0
-2313 21 0
-2313 31 0
-2313 74 0
2313 -21 -31 -74 0
-2311 2312 2313 0
-2312 2311 2313 0
-2313 2311 2312 0
-2314 28 0
-2314 39 0
-2314 55 0
2314 -28 -39 -55 0
-2315 28 0
-2315 31 0
-2315 71 0
2315 -28 -31 -71 0
-2316 22 0
-2316 48 0
-2316 52 0
2316 -22 -48 -52 0
-2317 22 0
-2317 39 0
-2317 61 0
2317 -22 -39 -61 0
-2318 14 0
-2318 48 0
-2318 55 0
2318 -14 -48 -55 0
-2319 11 0
-2319 48 0
-2319 71 0
2319 -11 -48 -71 0
-2314 2315 2316 2317 2318 2319 0
-2315 2314 2316 2317 2318 2319 0
-2316 2314 2315 2317 2318 2319 0
-2317 2314 2315 2316 2318 2319 0
-2318 2314 2315 2316 2317 2319 0
-2319 2314 2315 2316 2317 2318 0
-2320 22 0
-2320 39 0
-2320 62 0
2320 -22 -39 -62 0
-2321 21 0
-2321 39 0
-2321 55 0
2321 -21 -39 -55 0
-2322 21 0
-2322 31 0
-2322 71 0
2322 -21 -31 -71 0
-2323 1 0
-2323 39 0
-2323 55 0
2323 -1 -39 -55 0
-2324 1 0
-2324 31 0
-2324 71 0
2324 -1 -31 -71 0
-2320 2321 2322 2323 2324 0
-2321 2320 2322 2323 2324 0
-2322 2320 2321 2323 2324 0
-2323 2320 2321 2322 2324 0
-2324 2320 2321 2322 2323 0
-2325 29 0
-2325 39 0
-2325 55 0
2325 -29 -39 -55 0
-2326 29 0
-2326 31 0
-2326 71 0
2326 -29 -31 -71 0
-2327 22 0
-2327 39 0
-2327 63 0
2327 -22 -39 -63 0
-2328 22 0
-2328 31 0
-2328 74 0
2328 -22 -31 -74 0
-2329 14 0
-2329 31 0
-2329 77 0
2329 -14 -31 -77 0
-2330 11 0
-2330 39 0
-2330 77 0
2330 -11 -39 -77 0
-2325 2326 2327 2328 2329 2330 0
-2326 2325 2327 2328 2329 2330 0
-2327 2325 2326 2328 2329 2330 0
-2328 2325 2326 2327 2329 2330 0
-2329 2325 2326 2327 2328 2330 0
-2330 2325 2326 2327 2328 2329 0
-2331 28 0
-2331 40 0
-2331 53 0
2331 -28 -40 -53 0
-2332 28 0
-2332 32 0
-2332 64 0
2332 -28 -32 -64 0
-2333 20 0
-2333 40 0
-2333 56 0
2333 -20 -40 -56 0
-2334 20 0
-2334 32 0
-2334 72 0
2334 -20 -32 -72 0
-2331 2332 2333 2334 0
-2332 2331 2333 2334 0
-2333 2331 2332 2334 0
-2334 2331 2332 2333 0
-2335 21 0
-2335 40 0
-2335 53 0
2335 -21 -40 -53 0
-2336 21 0
-2336 32 0
-2336 64 0
2336 -21 -32 -64 0
-2337 20 0
-2337 40 0
2337 -20 -40 0
-2338 4 0
-2338 20 0
-2338 41 0
-2338 50 0
-2338 59 0
2338 -4 -20 -41 -50 -59 0
-2339 4 0
-2339 20 0
-2339 33 0
-2339 50 0
-2339 73 0
2339 -4 -20 -33 -50 -73 0
-2340 1 0
-2340 40 0
-2340 53 0
2340 -1 -40 -53 0
-2341 1 0
-2341 32 0
-2341 64 0
2341 -1 -32 -64 0
-2335 2336 2337 2338 2339 2340 2341 0
-2336 2335 2337 2338 2339 2340 2341 0
-2337 2335 2336 2338 2339 2340 2341 0
-2338 2335 2336 2337 2339 2340 2341 0
-2339 2335 2336 2337 2338 2340 2341 0
-2340 2335 2336 2337 2338 2339 2341 0
-2341 2335 2336 2337 2338 2339 2340 0
-2342 29 0
-2342 40 0
-2342 53 0
2342 -29 -40 -53 0
-2343 29 0
-2343 32 0
-2343 64 0
2343 -29 -32 -64 0
-2344 20 0
-2344 40 0
-2344 57 0
2344 -20 -40 -57 0
-2342 2343 2344 0
-2343 2342 2344 0
-2344 2342 2343 0
-2345 28 0
-2345 32 0
2345 -28 -32 0
-2346 21 0
-2346 40 0
-2346 56 0
2346 -21 -40 -56 0
-2347 21 0
-2347 32 0
-2347 72 0
2347 -21 -32 -72 0
-2348 4 0
-2348 28 0
-2348 41 0
-2348 50 0
-2348 54 0
2348 -4 -28 -41 -50 -54 0
-2349 4 0
-2349 28 0
-2349 33 0
-2349 50 0
-2349 67 0
2349 -4 -28 -33 -50 -67 0
-2345 2346 2347 2348 2349 0
-2346 2345 2347 2348 2349 0
-2347 2345 2346 2348 2349 0
-2348 2345 2346 2347 2349 0
-2349 2345 2346 2347 2348 0
-2350 21 0
-2350 40 0
2350 -21 -40 0
-2351 21 0
-2351 32 0
2351 -21 -32 0
-2352 4 0
-2352 21 0
-2352 41 0
-2352 50 0
-2352 59 0
2352 -4 -21 -41 -50 -59 0
-2353 4 0
-2353 21 0
-2353 41 0
-2353 50 0
-2353 54 0
2353 -4 -21 -41 -50 -54 0
-2354 4 0
-2354 21 0
-2354 33 0
-2354 50 0
-2354 73 0
2354 -4 -21 -33 -50 -73 0
-2355 4 0
-2355 21 0
-2355 33 0
-2355 50 0
-2355 67 0
2355 -4 -21 -33 -50 -67 0
-2356 1 0
-2356 32 0
2356 -1 -32 0
-2357 1 0
-2357 4 0
-2357 41 0
-2357 50 0
-2357 54 0
2357 -1 -4 -41 -50 -54 0
-2358 1 0
-2358 4 0
-2358 33 0
-2358 50 0
-2358 67 0
2358 -1 -4 -33 -50 -67 0
-2350 2351 2352 2353 2354 2355 2356 2357 2358 0
-2351 2350 2352 2353 2354 2355 2356 2357 2358 0
-2352 2350 2351 2353 2354 2355 2356 2357 2358 0
-2353 2350 2351 2352 2354 2355 2356 2357 2358 0
-2354 2350 2351 2352 2353 2355 2356 2357 2358 0
-2355 2350 2351 2352 2353 2354 2356 2357 2358 0
-2356 2350 2351 2352 2353 2354 2355 2357 2358 0
-2357 2350 2351 2352 2353 2354 2355 2356 2358 0
-2358 2350 2351 2352 2353 2354 2355 2356 2357 0
-2359 29 0
-2359 32 0
2359 -29 -32 0
-2360 21 0
-2360 40 0
-2360 57 0
2360 -21 -40 -57 0
-2361 4 0
-2361 29 0
-2361 41 0
-2361 50 0
-2361 54 0
2361 -4 -29 -41 -50 -54 0
-2362 4 0
-2362 29 0
-2362 33 0
-2362 50 0
-2362 67 0
2362 -4 -29 -33 -50 -67 0
-2359 2360 2361 2362 0
-2360 2359 2361 2362 0
-2361 2359 2360 2362 0
-2362 2359 2360 2361 0
-2363 28 0
-2363 32 0
-2363 65 0
2363 -28 -32 -65 0
-2364 22 0
-2364 40 0
-2364 56 0
2364 -22 -40 -56 0
-2365 22 0
-2365 32 0
-2365 72 0
2365 -22 -32 -72 0
-2363 2364 2365 0
-2364 2363 2365 0
-2365 2363 2364 0
-2366 22 0
-2366 40 0
2366 -22 -40 0
-2367 21 0
-2367 32 0
-2367 65 0
2367 -21 -32 -65 0
-2368 4 0
-2368 22 0
-2368 41 0
-2368 50 0
-2368 59 0
2368 -4 -22 -41 -50 -59 0
-2369 4 0
-2369 22 0
-2369 33 0
-2369 50 0
-2369 73 0
2369 -4 -22 -33 -50 -73 0
-2370 1 0
-2370 32 0
-2370 65 0
2370 -1 -32 -65 0
-2366 2367 2368 2369 2370 0
-2367 2366 2368 2369 2370 0
-2368 2366 2367 2369 2370 0
-2369 2366 2367 2368 2370 0
-2370 2366 2367 2368 2369 0
-2371 29 0
-2371 32 0
-2371 65 0
2371 -29 -32 -65 0
-2372 22 0
-2372 40 0
-2372 57 0
2372 -22 -40 -57 0
-2371 2372 0
-2372 2371 0
-2373 28 0
-2373 41 0
-2373 53 0
2373 -28 -41 -53 0
-2374 28 0
-2374 32 0
-2374 66 0
2374 -28 -32 -66 0
-2375 20 0
-2375 41 0
-2375 56 0
2375 -20 -41 -56 0
-2373 2374 2375 0
-2374 2373 2375 0
-2375 2373 2374 0
-2376 21 0
-2376 41 0
-2376 53 0
2376 -21 -41 -53 0
-2377 21 0
-2377 32 0
-2377 66 0
2377 -21 -32 -66 0
-2378 20 0
-2378 41 0
2378 -20 -41 0
-2379 20 0
-2379 32 0
-2379 73 0
2379 -20 -32 -73 0
-2380 1 0
-2380 41 0
-2380 53 0
2380 -1 -41 -53 0
-2381 1 0
-2381 32 0
-2381 66 0
2381 -1 -32 -66 0
-2376 2377 2378 2379 2380 2381 0
-2377 2376 2378 2379 2380 2381 0
-2378 2376 2377 2379 2380 2381 0
-2379 2376 2377 2378 2380 2381 0
-2380 2376 2377 2378 2379 2381 0
-2381 2376 2377 2378 2379 2380 0
-2382 29 0
-2382 41 0
-2382 53 0
2382 -29 -41 -53 0
-2383 29 0
-2383 32 0
-2383 66 0
2383 -29 -32 -66 0
-2384 20 0
-2384 41 0
-2384 57 0
2384 -20 -41 -57 0
-2382 2383 2384 0
-2383 2382 2384 0
-2384 2382 2383 0
-2385 28 0
-2385 32 0
-2385 67 0
2385 -28 -32 -67 0
-2386 21 0
-2386 41 0
-2386 56 0
2386 -21 -41 -56 0
-2385 2386 0
-2386 2385 0
-2387 21 0
-2387 41 0
2387 -21 -41 0
-2388 21 0
-2388 32 0
-2388 73 0
2388 -21 -32 -73 0
-2389 21 0
-2389 32 0
-2389 67 0
2389 -21 -32 -67 0
-2390 1 0
-2390 32 0
-2390 67 0
2390 -1 -32 -67 0
-2387 2388 2389 2390 0
-2388 2387 2389 2390 0
-2389 2387 2388 2390 0
-2390 2387 2388 2389 0
-2391 29 0
-2391 32 0
-2391 67 0
2391 -29 -32 -67 0
-2392 21 0
-2392 41 0
-2392 57 0
2392 -21 -41 -57 0
-2391 2392 0
-2392 2391 0
-2393 28 0
-2393 32 0
-2393 68 0
2393 -28 -32 -68 0
-2394 22 0
-2394 41 0
-2394 56 0
2394 -22 -41 -56 0
-2393 2394 0
-2394 2393 0
-2395 22 0
-2395 41 0
2395 -22 -41 0
-2396 22 0
-2396 32 0
-2396 73 0
2396 -22 -32 -73 0
-2397 21 0
-2397 32 0
-2397 68 0
2397 -21 -32 -68 0
-2398 1 0
-2398 32 0
-2398 68 0
2398 -1 -32 -68 0
-2395 2396 2397 2398 0
-2396 2395 2397 2398 0
-2397 2395 2396 2398 0
-2398 2395 2396 2397 0
-2399 29 0
-2399 32 0
-2399 68 0
2399 -29 -32 -68 0
-2400 22 0
-2400 41 0
-2400 57 0
2400 -22 -41 -57 0
-2399 2400 0
-2400 2399 0
-2401 28 0
-2401 42 0
-2401 53 0
2401 -28 -42 -53 0
-2402 28 0
-2402 32 0
-2402 69 0
2402 -28 -32 -69 0
-2403 20 0
-2403 42 0
-2403 56 0
2403 -20 -42 -56 0
-2404 14 0
-2404 32 0
-2404 75 0
2404 -14 -32 -75 0
-2401 2402 2403 2404 0
-2402 2401 2403 2404 0
-2403 2401 2402 2404 0
-2404 2401 2402 2403 0
-2405 21 0
-2405 42 0
-2405 53 0
2405 -21 -42 -53 0
-2406 21 0
-2406 32 0
-2406 69 0
2406 -21 -32 -69 0
-2407 20 0
-2407 42 0
2407 -20 -42 0
-2408 4 0
-2408 14 0
-2408 41 0
-2408 53 0
-2408 59 0
2408 -4 -14 -41 -53 -59 0
-2409 4 0
-2409 14 0
-2409 33 0
-2409 53 0
-2409 73 0
2409 -4 -14 -33 -53 -73 0
-2410 1 0
-2410 42 0
-2410 53 0
2410 -1 -42 -53 0
-2411 1 0
-2411 32 0
-2411 69 0
2411 -1 -32 -69 0
-2405 2406 2407 2408 2409 2410 2411 0
-2406 2405 2407 2408 2409 2410 2411 0
-2407 2405 2406 2408 2409 2410 2411 0
-2408 2405 2406 2407 2409 2410 2411 0
-2409 2405 2406 2407 2408 2410 2411 0
-2410 2405 2406 2407 2408 2409 2411 0
-2411 2405 2406 2407 2408 2409 2410 0
-2412 29 0
-2412 42 0
-2412 53 0
2412 -29 -42 -53 0
-2413 29 0
-2413 32 0
-2413 69 0
2413 -29 -32 -69 0
-2414 20 0
-2414 42 0
-2414 57 0
2414 -20 -42 -57 0
-2415 20 0
-2415 32 0
-2415 74 0
2415 -20 -32 -74 0
-2412 2413 2414 2415 0
-2413 2412 2414 2415 0
-2414 2412 2413 2415 0
-2415 2412 2413 2414 0
-2416 28 0
-2416 32 0
-2416 70 0
2416 -28 -32 -70 0
-2417 21 0
-2417 42 0
-2417 56 0
2417 -21 -42 -56 0
-2418 4 0
-2418 14 0
-2418 41 0
-2418 54 0
-2418 56 0
2418 -4 -14 -41 -54 -56 0
-2419 4 0
-2419 14 0
-2419 33 0
-2419 56 0
-2419 67 0
2419 -4 -14 -33 -56 -67 0
-2416 2417 2418 2419 0
-2417 2416 2418 2419 0
-2418 2416 2417 2419 0
-2419 2416 2417 2418 0
-2420 21 0
-2420 42 0
2420 -21 -42 0
-2421 21 0
-2421 32 0
-2421 70 0
2421 -21 -32 -70 0
-2422 14 0
-2422 32 0
-2422 76 0
2422 -14 -32 -76 0
-2423 4 0
-2423 14 0
-2423 41 0
-2423 54 0
2423 -4 -14 -41 -54 0
-2424 4 0
-2424 14 0
-2424 33 0
-2424 67 0
2424 -4 -14 -33 -67 0
-2425 1 0
-2425 32 0
-2425 70 0
2425 -1 -32 -70 0
-2420 2421 2422 2423 2424 2425 0
-2421 2420 2422 2423 2424 2425 0
-2422 2420 2421 2423 2424 2425 0
-2423 2420 2421 2422 2424 2425 0
-2424 2420 2421 2422 2423 2425 0
-2425 2420 2421 2422 2423 2424 0
-2426 29 0
-2426 32 0
-2426 70 0
2426 -29 -32 -70 0
-2427 21 0
-2427 42 0
-2427 57 0
2427 -21 -42 -57 0
-2428 21 0
-2428 32 0
-2428 74 0
2428 -21 -32 -74 0
-2429 4 0
-2429 14 0
-2429 41 0
-2429 54 0
-2429 57 0
2429 -4 -14 -41 -54 -57 0
-2430 4 0
-2430 14 0
-2430 33 0
-2430 57 0
-2430 67 0
2430 -4 -14 -33 -57 -67 0
-2426 2427 2428 2429 2430 0
-2427 2426 2428 2429 2430 0
-2428 2426 2427 2429 2430 0
-2429 2426 2427 2428 2430 0
-2430 2426 2427 2428 2429 0
-2431 28 0
-2431 32 0
-2431 71 0
2431 -28 -32 -71 0
-2432 22 0
-2432 42 0
-2432 56 0
2432 -22 -42 -56 0
-2431 2432 0
-2432 2431 0
-2433 22 0
-2433 42 0
2433 -22 -42 0
-2434 21 0
-2434 32 0
-2434 71 0
2434 -21 -32 -71 0
-2435 1 0
-2435 32 0
-2435 71 0
2435 -1 -32 -71 0
-2433 2434 2435 0
-2434 2433 2435 0
-2435 2433 2434 0
-2436 29 0
-2436 32 0
-2436 71 0
2436 -29 -32 -71 0
-2437 22 0
-2437 42 0
-2437 57 0
2437 -22 -42 -57 0
-2438 22 0
-2438 32 0
-2438 74 0
2438 -22 -32 -74 0
-2439 14 0
-2439 32 0
-2439 77 0
2439 -14 -32 -77 0
-2436 2437 2438 2439 0
-2437 2436 2438 2439 0
-2438 2436 2437 2439 0
-2439 2436 2437 2438 0
-2440 28 0
-2440 33 0
-2440 64 0
2440 -28 -33 -64 0
-2441 20 0
-2441 40 0
-2441 58 0
2441 -20 -40 -58 0
-2442 20 0
-2442 33 0
-2442 72 0
2442 -20 -33 -72 0
-2440 2441 2442 0
-2441 2440 2442 0
-2442 2440 2441 0
-2443 21 0
-2443 33 0
-2443 64 0
2443 -21 -33 -64 0
-2444 20 0
-2444 40 0
-2444 59 0
2444 -20 -40 -59 0
-2445 1 0
-2445 33 0
-2445 64 0
2445 -1 -33 -64 0
-2443 2444 2445 0
-2444 2443 2445 0
-2445 2443 2444 0
-2446 29 0
-2446 33 0
-2446 64 0
2446 -29 -33 -64 0
-2447 20 0
-2447 40 0
-2447 60 0
2447 -20 -40 -60 0
-2446 2447 0
-2447 2446 0
-2448 28 0
-2448 40 0
-2448 54 0
2448 -28 -40 -54 0
-2449 28 0
-2449 33 0
2449 -28 -33 0
-2450 21 0
-2450 40 0
-2450 58 0
2450 -21 -40 -58 0
-2451 21 0
-2451 33 0
-2451 72 0
2451 -21 -33 -72 0
-2448 2449 2450 2451 0
-2449 2448 2450 2451 0
-2450 2448 2449 2451 0
-2451 2448 2449 2450 0
-2452 21 0
-2452 40 0
-2452 59 0
2452 -21 -40 -59 0
-2453 21 0
-2453 40 0
-2453 54 0
2453 -21 -40 -54 0
-2454 21 0
-2454 33 0
2454 -21 -33 0
-2455 1 0
-2455 40 0
-2455 54 0
2455 -1 -40 -54 0
-2456 1 0
-2456 33 0
2456 -1 -33 0
-2452 2453 2454 2455 2456 0
-2453 2452 2454 2455 2456 0
-2454 2452 2453 2455 2456 0
-2455 2452 2453 2454 2456 0
-2456 2452 2453 2454 2455 0
-2457 29 0
-2457 40 0
-2457 54 0
2457 -29 -40 -54 0
-2458 29 0
-2458 33 0
2458 -29 -33 0
-2459 21 0
-2459 40 0
-2459 60 0
2459 -21 -40 -60 0
-2457 2458 2459 0
-2458 2457 2459 0
-2459 2457 2458 0
-2460 28 0
-2460 33 0
-2460 65 0
2460 -28 -33 -65 0
-2461 22 0
-2461 40 0
-2461 58 0
2461 -22 -40 -58 0
-2462 22 0
-2462 33 0
-2462 72 0
2462 -22 -33 -72 0
-2460 2461 2462 0
-2461 2460 2462 0
-2462 2460 2461 0
-2463 22 0
-2463 40 0
-2463 59 0
2463 -22 -40 -59 0
-2464 21 0
-2464 33 0
-2464 65 0
2464 -21 -33 -65 0
-2465 1 0
-2465 33 0
-2465 65 0
2465 -1 -33 -65 0
-2463 2464 2465 0
-2464 2463 2465 0
-2465 2463 2464 0
-2466 29 0
-2466 33 0
-2466 65 0
2466 -29 -33 -65 0
-2467 22 0
-2467 40 0
-2467 60 0
2467 -22 -40 -60 0
-2466 2467 0
-2467 2466 0
-2468 28 0
-2468 33 0
-2468 66 0
2468 -28 -33 -66 0
-2469 20 0
-2469 41 0
-2469 58 0
2469 -20 -41 -58 0
-2468 2469 0
-2469 2468 0
-2470 21 0
-2470 33 0
-2470 66 0
2470 -21 -33 -66 0
-2471 20 0
-2471 41 0
-2471 59 0
2471 -20 -41 -59 0
-2472 20 0
-2472 33 0
-2472 73 0
2472 -20 -33 -73 0
-2473 4 0
-2473 20 0
-2473 41 0
-2473 51 0
-2473 59 0
2473 -4 -20 -41 -51 -59 0
-2474 4 0
-2474 20 0
-2474 33 0
-2474 51 0
-2474 73 0
2474 -4 -20 -33 -51 -73 0
-2475 1 0
-2475 33 0
-2475 66 0
2475 -1 -33 -66 0
-2470 2471 2472 2473 2474 2475 0
-2471 2470 2472 2473 2474 2475 0
-2472 2470 2471 2473 2474 2475 0
-2473 2470 2471 2472 2474 2475 0
-2474 2470 2471 2472 2473 2475 0
-2475 2470 2471 2472 2473 2474 0
-2476 29 0
-2476 33 0
-2476 66 0
2476 -29 -33 -66 0
-2477 20 0
-2477 41 0
-2477 60 0
2477 -20 -41 -60 0
-2476 2477 0
-2477 2476 0
-2478 28 0
-2478 41 0
-2478 54 0
2478 -28 -41 -54 0
-2479 28 0
-2479 33 0
-2479 67 0
2479 -28 -33 -67 0
-2480 21 0
-2480 41 0
-2480 58 0
2480 -21 -41 -58 0
-2481 4 0
-2481 28 0
-2481 41 0
-2481 51 0
-2481 54 0
2481 -4 -28 -41 -51 -54 0
-2482 4 0
-2482 28 0
-2482 33 0
-2482 51 0
-2482 67 0
2482 -4 -28 -33 -51 -67 0
-2478 2479 2480 2481 2482 0
-2479 2478 2480 2481 2482 0
-2480 2478 2479 2481 2482 0
-2481 2478 2479 2480 2482 0
-2482 2478 2479 2480 2481 0
-2483 21 0
-2483 41 0
-2483 59 0
2483 -21 -41 -59 0
-2484 21 0
-2484 41 0
-2484 54 0
2484 -21 -41 -54 0
-2485 21 0
-2485 33 0
-2485 73 0
2485 -21 -33 -73 0
-2486 21 0
-2486 33 0
-2486 67 0
2486 -21 -33 -67 0
-2487 4 0
-2487 21 0
-2487 41 0
-2487 51 0
-2487 59 0
2487 -4 -21 -41 -51 -59 0
-2488 4 0
-2488 21 0
-2488 41 0
-2488 51 0
-2488 54 0
2488 -4 -21 -41 -51 -54 0
-2489 4 0
-2489 21 0
-2489 33 0
-2489 51 0
-2489 73 0
2489 -4 -21 -33 -51 -73 0
-2490 4 0
-2490 21 0
-2490 33 0
-2490 51 0
-2490 67 0
2490 -4 -21 -33 -51 -67 0
-2491 1 0
-2491 41 0
-2491 54 0
2491 -1 -41 -54 0
-2492 1 0
-2492 33 0
-2492 67 0
2492 -1 -33 -67 0
-2493 1 0
-2493 4 0
-2493 41 0
-2493 51 0
-2493 54 0
2493 -1 -4 -41 -51 -54 0
-2494 1 0
-2494 4 0
-2494 33 0
-2494 51 0
-2494 67 0
2494 -1 -4 -33 -51 -67 0
-2483 2484 2485 2486 2487 2488 2489 2490 2491 2492 2493 2494 0
-2484 2483 2485 2486 2487 2488 2489 2490 2491 2492 2493 2494 0
-2485 2483 2484 2486 2487 2488 2489 2490 2491 2492 2493 2494 0
-2486 2483 2484 2485 2487 2488 2489 2490 2491 2492 2493 2494 0
-2487 2483 2484 2485 2486 2488 2489 2490 2491 2492 2493 2494 0
-2488 2483 2484 2485 2486 2487 2489 2490 2491 2492 2493 2494 0
-2489 2483 2484 2485 2486 2487 2488 2490 2491 2492 2493 2494 0
-2490 2483 2484 2485 2486 2487 2488 2489 2491 2492 2493 2494 0
-2491 2483 2484 2485 2486 2487 2488 2489 2490 2492 2493 2494 0
-2492 2483 2484 2485 2486 2487 2488 2489 2490 2491 2493 2494 0
-2493 2483 2484 2485 2486 2487 2488 2489 2490 2491 2492 2494 0
-2494 2483 2484 2485 2486 2487 2488 2489 2490 2491 2492 2493 0
-2495 29 0
-2495 41 0
-2495 54 0
2495 -29 -41 -54 0
-2496 29 0
-2496 33 0
-2496 67 0
2496 -29 -33 -67 0
-2497 21 0
-2497 41 0
-2497 60 0
2497 -21 -41 -60 0
-2498 4 0
-2498 29 0
-2498 41 0
-2498 51 0
-2498 54 0
2498 -4 -29 -41 -51 -54 0
-2499 4 0
-2499 29 0
-2499 33 0
-2499 51 0
-2499 67 0
2499 -4 -29 -33 -51 -67 0
-2495 2496 2497 2498 2499 0
-2496 2495 2497 2498 2499 0
-2497 2495 2496 2498 2499 0
-2498 2495 2496 2497 2499 0
-2499 2495 2496 2497 2498 0
-2500 28 0
-2500 33 0
-2500 68 0
2500 -28 -33 -68 0
-2501 22 0
-2501 41 0
-2501 58 0
2501 -22 -41 -58 0
-2500 2501 0
-2501 2500 0
-2502 22 0
-2502 41 0
-2502 59 0
2502 -22 -41 -59 0
-2503 22 0
-2503 33 0
-2503 73 0
2503 -22 -33 -73 0
-2504 21 0
-2504 33 0
-2504 68 0
2504 -21 -33 -68 0
-2505 4 0
-2505 22 0
-2505 41 0
-2505 51 0
-2505 59 0
2505 -4 -22 -41 -51 -59 0
-2506 4 0
-2506 22 0
-2506 33 0
-2506 51 0
-2506 73 0
2506 -4 -22 -33 -51 -73 0
-2507 1 0
-2507 33 0
-2507 68 0
2507 -1 -33 -68 0
-2502 2503 2504 2505 2506 2507 0
-2503 2502 2504 2505 2506 2507 0
-2504 2502 2503 2505 2506 2507 0
-2505 2502 2503 2504 2506 2507 0
-2506 2502 2503 2504 2505 2507 0
-2507 2502 2503 2504 2505 2506 0
-2508 29 0
-2508 33 0
-2508 68 0
2508 -29 -33 -68 0
-2509 22 0
-2509 41 0
-2509 60 0
2509 -22 -41 -60 0
-2508 2509 0
-2509 2508 0
-2510 28 0
-2510 33 0
-2510 69 0
2510 -28 -33 -69 0
-2511 20 0
-2511 42 0
-2511 58 0
2511 -20 -42 -58 0
-2512 14 0
-2512 33 0
-2512 75 0
2512 -14 -33 -75 0
-2510 2511 2512 0
-2511 2510 2512 0
-2512 2510 2511 0
-2513 21 0
-2513 33 0
-2513 69 0
2513 -21 -33 -69 0
-2514 20 0
-2514 42 0
-2514 59 0
2514 -20 -42 -59 0
-2515 1 0
-2515 33 0
-2515 69 0
2515 -1 -33 -69 0
-2513 2514 2515 0
-2514 2513 2515 0
-2515 2513 2514 0
-2516 29 0
-2516 33 0
-2516 69 0
2516 -29 -33 -69 0
-2517 20 0
-2517 42 0
-2517 60 0
2517 -20 -42 -60 0
-2518 20 0
-2518 33 0
-2518 74 0
2518 -20 -33 -74 0
-2516 2517 2518 0
-2517 2516 2518 0
-2518 2516 2517 0
-2519 28 0
-2519 42 0
-2519 54 0
2519 -28 -42 -54 0
-2520 28 0
-2520 33 0
-2520 70 0
2520 -28 -33 -70 0
-2521 21 0
-2521 42 0
-2521 58 0
2521 -21 -42 -58 0
-2522 4 0
-2522 14 0
-2522 41 0
-2522 54 0
-2522 58 0
2522 -4 -14 -41 -54 -58 0
-2523 4 0
-2523 14 0
-2523 33 0
-2523 58 0
-2523 67 0
2523 -4 -14 -33 -58 -67 0
-2519 2520 2521 2522 2523 0
-2520 2519 2521 2522 2523 0
-2521 2519 2520 2522 2523 0
-2522 2519 2520 2521 2523 0
-2523 2519 2520 2521 2522 0
-2524 21 0
-2524 42 0
-2524 59 0
2524 -21 -42 -59 0
-2525 21 0
-2525 42 0
-2525 54 0
2525 -21 -42 -54 0
-2526 21 0
-2526 33 0
-2526 70 0
2526 -21 -33 -70 0
-2527 14 0
-2527 33 0
-2527 76 0
2527 -14 -33 -76 0
-2528 4 0
-2528 14 0
-2528 41 0
-2528 54 0
-2528 59 0
2528 -4 -14 -41 -54 -59 0
-2529 4 0
-2529 14 0
-2529 33 0
-2529 59 0
-2529 67 0
2529 -4 -14 -33 -59 -67 0
-2530 4 0
-2530 14 0
-2530 33 0
-2530 54 0
-2530 73 0
2530 -4 -14 -33 -54 -73 0
-2531 1 0
-2531 42 0
-2531 54 0
2531 -1 -42 -54 0
-2532 1 0
-2532 33 0
-2532 70 0
2532 -1 -33 -70 0
-2524 2525 2526 2527 2528 2529 2530 2531 2532 0
-2525 2524 2526 2527 2528 2529 2530 2531 2532 0
-2526 2524 2525 2527 2528 2529 2530 2531 2532 0
-2527 2524 2525 2526 2528 2529 2530 2531 2532 0
-2528 2524 2525 2526 2527 2529 2530 2531 2532 0
-2529 2524 2525 2526 2527 2528 2530 2531 2532 0
-2530 2524 2525 2526 2527 2528 2529 2531 2532 0
-2531 2524 2525 2526 2527 2528 2529 2530 2532 0
-2532 2524 2525 2526 2527 2528 2529 2530 2531 0
-2533 29 0
-2533 42 0
-2533 54 0
2533 -29 -42 -54 0
-2534 29 0
-2534 33 0
-2534 70 0
2534 -29 -33 -70 0
-2535 21 0
-2535 42 0
-2535 60 0
2535 -21 -42 -60 0
-2536 21 0
-2536 33 0
-2536 74 0
2536 -21 -33 -74 0
-2537 4 0
-2537 14 0
-2537 41 0
-2537 54 0
-2537 60 0
2537 -4 -14 -41 -54 -60 0
-2538 4 0
-2538 14 0
-2538 33 0
-2538 60 0
-2538 67 0
2538 -4 -14 -33 -60 -67 0
-2533 2534 2535 2536 2537 2538 0
-2534 2533 2535 2536 2537 2538 0
-2535 2533 2534 2536 2537 2538 0
-2536 2533 2534 2535 2537 2538 0
-2537 2533 2534 2535 2536 2538 0
-2538 2533 2534 2535 2536 2537 0
-2539 28 0
-2539 33 0
-2539 71 0
2539 -28 -33 -71 0
-2540 22 0
-2540 42 0
-2540 58 0
2540 -22 -42 -58 0
-2539 2540 0
-2540 2539 0
-2541 22 0
-2541 42 0
-2541 59 0
2541 -22 -42 -59 0
-2542 21 0
-2542 33 0
-2542 71 0
2542 -21 -33 -71 0
-2543 1 0
-2543 33 0
-2543 71 0
2543 -1 -33 -71 0
-2541 2542 2543 0
-2542 2541 2543 0
-2543 2541 2542 0
-2544 29 0
-2544 33 0
-2544 71 0
2544 -29 -33 -71 0
-2545 22 0
-2545 42 0
-2545 60 0
2545 -22 -42 -60 0
-2546 22 0
-2546 33 0
-2546 74 0
2546 -22 -33 -74 0
-2547 14 0
-2547 33 0
-2547 77 0
2547 -14 -33 -77 0
-2544 2545 2546 2547 0
-2545 2544 2546 2547 0
-2546 2544 2545 2547 0
-2547 2544 2545 2546 0
-2548 28 0
-2548 34 0
-2548 64 0
2548 -28 -34 -64 0
-2549 20 0
-2549 40 0
-2549 61 0
2549 -20 -40 -61 0
-2550 20 0
-2550 34 0
-2550 72 0
2550 -20 -34 -72 0
-2551 11 0
-2551 40 0
-2551 75 0
2551 -11 -40 -75 0
-2548 2549 2550 2551 0
-2549 2548 2550 2551 0
-2550 2548 2549 2551 0
-2551 2548 2549 2550 0
-2552 21 0
-2552 34 0
-2552 64 0
2552 -21 -34 -64 0
-2553 20 0
-2553 40 0
-2553 62 0
2553 -20 -40 -62 0
-2554 4 0
-2554 11 0
-2554 41 0
-2554 59 0
-2554 64 0
2554 -4 -11 -41 -59 -64 0
-2555 4 0
-2555 11 0
-2555 33 0
-2555 64 0
-2555 73 0
2555 -4 -11 -33 -64 -73 0
-2556 1 0
-2556 34 0
-2556 64 0
2556 -1 -34 -64 0
-2552 2553 2554 2555 2556 0
-2553 2552 2554 2555 2556 0
-2554 2552 2553 2555 2556 0
-2555 2552 2553 2554 2556 0
-2556 2552 2553 2554 2555 0
-2557 29 0
-2557 34 0
-2557 64 0
2557 -29 -34 -64 0
-2558 20 0
-2558 40 0
-2558 63 0
2558 -20 -40 -63 0
-2557 2558 0
-2558 2557 0
-2559 28 0
-2559 34 0
2559 -28 -34 0
-2560 21 0
-2560 40 0
-2560 61 0
2560 -21 -40 -61 0
-2561 21 0
-2561 34 0
-2561 72 0
2561 -21 -34 -72 0
-2562 4 0
-2562 11 0
-2562 41 0
-2562 54 0
-2562 72 0
2562 -4 -11 -41 -54 -72 0
-2563 4 0
-2563 11 0
-2563 33 0
-2563 67 0
-2563 72 0
2563 -4 -11 -33 -67 -72 0
-2559 2560 2561 2562 2563 0
-2560 2559 2561 2562 2563 0
-2561 2559 2560 2562 2563 0
-2562 2559 2560 2561 2563 0
-2563 2559 2560 2561 2562 0
-2564 21 0
-2564 40 0
-2564 62 0
2564 -21 -40 -62 0
-2565 21 0
-2565 34 0
2565 -21 -34 0
-2566 11 0
-2566 40 0
-2566 76 0
2566 -11 -40 -76 0
-2567 4 0
-2567 11 0
-2567 41 0
-2567 59 0
2567 -4 -11 -41 -59 0
-2568 4 0
-2568 11 0
-2568 33 0
-2568 73 0
2568 -4 -11 -33 -73 0
-2569 1 0
-2569 34 0
2569 -1 -34 0
-2564 2565 2566 2567 2568 2569 0
-2565 2564 2566 2567 2568 2569 0
-2566 2564 2565 2567 2568 2569 0
-2567 2564 2565 2566 2568 2569 0
-2568 2564 2565 2566 2567 2569 0
-2569 2564 2565 2566 2567 2568 0
-2570 29 0
-2570 34 0
2570 -29 -34 0
-2571 21 0
-2571 40 0
-2571 63 0
2571 -21 -40 -63 0
-2570 2571 0
-2571 2570 0
-2572 28 0
-2572 40 0
-2572 55 0
2572 -28 -40 -55 0
-2573 28 0
-2573 34 0
-2573 65 0
2573 -28 -34 -65 0
-2574 22 0
-2574 40 0
-2574 61 0
2574 -22 -40 -61 0
-2575 22 0
-2575 34 0
-2575 72 0
2575 -22 -34 -72 0
-2572 2573 2574 2575 0
-2573 2572 2574 2575 0
-2574 2572 2573 2575 0
-2575 2572 2573 2574 0
-2576 22 0
-2576 40 0
-2576 62 0
2576 -22 -40 -62 0
-2577 21 0
-2577 40 0
-2577 55 0
2577 -21 -40 -55 0
-2578 21 0
-2578 34 0
-2578 65 0
2578 -21 -34 -65 0
-2579 4 0
-2579 11 0
-2579 41 0
-2579 59 0
-2579 65 0
2579 -4 -11 -41 -59 -65 0
-2580 4 0
-2580 11 0
-2580 33 0
-2580 65 0
-2580 73 0
2580 -4 -11 -33 -65 -73 0
-2581 1 0
-2581 40 0
-2581 55 0
2581 -1 -40 -55 0
-2582 1 0
-2582 34 0
-2582 65 0
2582 -1 -34 -65 0
-2576 2577 2578 2579 2580 2581 2582 0
-2577 2576 2578 2579 2580 2581 2582 0
-2578 2576 2577 2579 2580 2581 2582 0
-2579 2576 2577 2578 2580 2581 2582 0
-2580 2576 2577 2578 2579 2581 2582 0
-2581 2576 2577 2578 2579 2580 2582 0
-2582 2576 2577 2578 2579 2580 2581 0
-2583 29 0
-2583 40 0
-2583 55 0
2583 -29 -40 -55 0
-2584 29 0
-2584 34 0
-2584 65 0
2584 -29 -34 -65 0
-2585 22 0
-2585 40 0
-2585 63 0
2585 -22 -40 -63 0
-2586 11 0
-2586 40 0
-2586 77 0
2586 -11 -40 -77 0
-2583 2584 2585 2586 0
-2584 2583 2585 2586 0
-2585 2583 2584 2586 0
-2586 2583 2584 2585 0
-2587 28 0
-2587 34 0
-2587 66 0
2587 -28 -34 -66 0
-2588 20 0
-2588 41 0
-2588 61 0
2588 -20 -41 -61 0
-2589 11 0
-2589 41 0
-2589 75 0
2589 -11 -41 -75 0
-2587 2588 2589 0
-2588 2587 2589 0
-2589 2587 2588 0
-2590 21 0
-2590 34 0
-2590 66 0
2590 -21 -34 -66 0
-2591 20 0
-2591 41 0
-2591 62 0
2591 -20 -41 -62 0
-2592 20 0
-2592 34 0
-2592 73 0
2592 -20 -34 -73 0
-2593 4 0
-2593 11 0
-2593 41 0
-2593 59 0
-2593 66 0
2593 -4 -11 -41 -59 -66 0
-2594 4 0
-2594 11 0
-2594 33 0
-2594 66 0
-2594 73 0
2594 -4 -11 -33 -66 -73 0
-2595 1 0
-2595 34 0
-2595 66 0
2595 -1 -34 -66 0
-2590 2591 2592 2593 2594 2595 0
-2591 2590 2592 2593 2594 2595 0
-2592 2590 2591 2593 2594 2595 0
-2593 2590 2591 2592 2594 2595 0
-2594 2590 2591 2592 2593 2595 0
-2595 2590 2591 2592 2593 2594 0
-2596 29 0
-2596 34 0
-2596 66 0
2596 -29 -34 -66 0
-2597 20 0
-2597 41 0
-2597 63 0
2597 -20 -41 -63 0
-2596 2597 0
-2597 2596 0
-2598 28 0
-2598 34 0
-2598 67 0
2598 -28 -34 -67 0
-2599 21 0
-2599 41 0
-2599 61 0
2599 -21 -41 -61 0
-2598 2599 0
-2599 2598 0
-2600 21 0
-2600 41 0
-2600 62 0
2600 -21 -41 -62 0
-2601 21 0
-2601 34 0
-2601 73 0
2601 -21 -34 -73 0
-2602 21 0
-2602 34 0
-2602 67 0
2602 -21 -34 -67 0
-2603 11 0
-2603 41 0
-2603 76 0
2603 -11 -41 -76 0
-2604 4 0
-2604 11 0
-2604 41 0
-2604 59 0
-2604 67 0
2604 -4 -11 -41 -59 -67 0
-2605 4 0
-2605 11 0
-2605 41 0
-2605 54 0
-2605 73 0
2605 -4 -11 -41 -54 -73 0
-2606 4 0
-2606 11 0
-2606 33 0
-2606 67 0
-2606 73 0
2606 -4 -11 -33 -67 -73 0
-2607 1 0
-2607 34 0
-2607 67 0
2607 -1 -34 -67 0
-2600 2601 2602 2603 2604 2605 2606 2607 0
-2601 2600 2602 2603 2604 2605 2606 2607 0
-2602 2600 2601 2603 2604 2605 2606 2607 0
-2603 2600 2601 2602 2604 2605 2606 2607 0
-2604 2600 2601 2602 2603 2605 2606 2607 0
-2605 2600 2601 2602 2603 2604 2606 2607 0
-2606 2600 2601 2602 2603 2604 2605 2607 0
-2607 2600 2601 2602 2603 2604 2605 2606 0
-2608 29 0
-2608 34 0
-2608 67 0
2608 -29 -34 -67 0
-2609 21 0
-2609 41 0
-2609 63 0
2609 -21 -41 -63 0
-2608 2609 0
-2609 2608 0
-2610 28 0
-2610 41 0
-2610 55 0
2610 -28 -41 -55 0
-2611 28 0
-2611 34 0
-2611 68 0
2611 -28 -34 -68 0
-2612 22 0
-2612 41 0
-2612 61 0
2612 -22 -41 -61 0
-2610 2611 2612 0
-2611 2610 2612 0
-2612 2610 2611 0
-2613 22 0
-2613 41 0
-2613 62 0
2613 -22 -41 -62 0
-2614 22 0
-2614 34 0
-2614 73 0
2614 -22 -34 -73 0
-2615 21 0
-2615 41 0
-2615 55 0
2615 -21 -41 -55 0
-2616 21 0
-2616 34 0
-2616 68 0
2616 -21 -34 -68 0
-2617 4 0
-2617 11 0
-2617 41 0
-2617 59 0
-2617 68 0
2617 -4 -11 -41 -59 -68 0
-2618 4 0
-2618 11 0
-2618 33 0
-2618 68 0
-2618 73 0
2618 -4 -11 -33 -68 -73 0
-2619 1 0
-2619 41 0
-2619 55 0
2619 -1 -41 -55 0
-2620 1 0
-2620 34 0
-2620 68 0
2620 -1 -34 -68 0
-2613 2614 2615 2616 2617 2618 2619 2620 0
-2614 2613 2615 2616 2617 2618 2619 2620 0
-2615 2613 2614 2616 2617 2618 2619 2620 0
-2616 2613 2614 2615 2617 2618 2619 2620 0
-2617 2613 2614 2615 2616 2618 2619 2620 0
-2618 2613 2614 2615 2616 2617 2619 2620 0
-2619 2613 2614 2615 2616 2617 2618 2620 0
-2620 2613 2614 2615 2616 2617 2618 2619 0
-2621 29 0
-2621 41 0
-2621 55 0
2621 -29 -41 -55 0
-2622 29 0
-2622 34 0
-2622 68 0
2622 -29 -34 -68 0
-2623 22 0
-2623 41 0
-2623 63 0
2623 -22 -41 -63 0
-2624 11 0
-2624 41 0
-2624 77 0
2624 -11 -41 -77 0
-2621 2622 2623 2624 0
-2622 2621 2623 2624 0
-2623 2621 2622 2624 0
-2624 2621 2622 2623 0
-2625 28 0
-2625 34 0
-2625 69 0
2625 -28 -34 -69 0
-2626 20 0
-2626 42 0
-2626 61 0
2626 -20 -42 -61 0
-2627 14 0
-2627 34 0
-2627 75 0
2627 -14 -34 -75 0
-2628 11 0
-2628 42 0
-2628 75 0
2628 -11 -42 -75 0
-2625 2626 2627 2628 0
-2626 2625 2627 2628 0
-2627 2625 2626 2628 0
-2628 2625 2626 2627 0
-2629 21 0
-2629 34 0
-2629 69 0
2629 -21 -34 -69 0
-2630 20 0
-2630 42 0
-2630 62 0
2630 -20 -42 -62 0
-2631 4 0
-2631 20 0
-2631 41 0
-2631 52 0
-2631 59 0
2631 -4 -20 -41 -52 -59 0
-2632 4 0
-2632 20 0
-2632 33 0
-2632 52 0
-2632 73 0
2632 -4 -20 -33 -52 -73 0
-2633 4 0
-2633 11 0
-2633 41 0
-2633 59 0
-2633 69 0
2633 -4 -11 -41 -59 -69 0
-2634 4 0
-2634 11 0
-2634 33 0
-2634 69 0
-2634 73 0
2634 -4 -11 -33 -69 -73 0
-2635 1 0
-2635 34 0
-2635 69 0
2635 -1 -34 -69 0
-2629 2630 2631 2632 2633 2634 2635 0
-2630 2629 2631 2632 2633 2634 2635 0
-2631 2629 2630 2632 2633 2634 2635 0
-2632 2629 2630 2631 2633 2634 2635 0
-2633 2629 2630 2631 2632 2634 2635 0
-2634 2629 2630 2631 2632 2633 2635 0
-2635 2629 2630 2631 2632 2633 2634 0
-2636 29 0
-2636 34 0
-2636 69 0
2636 -29 -34 -69 0
-2637 20 0
-2637 42 0
-2637 63 0
2637 -20 -42 -63 0
-2638 20 0
-2638 34 0
-2638 74 0
2638 -20 -34 -74 0
-2636 2637 2638 0
-2637 2636 2638 0
-2638 2636 2637 0
-2639 28 0
-2639 34 0
-2639 70 0
2639 -28 -34 -70 0
-2640 21 0
-2640 42 0
-2640 61 0
2640 -21 -42 -61 0
-2641 4 0
-2641 28 0
-2641 41 0
-2641 52 0
-2641 54 0
2641 -4 -28 -41 -52 -54 0
-2642 4 0
-2642 28 0
-2642 33 0
-2642 52 0
-2642 67 0
2642 -4 -28 -33 -52 -67 0
-2643 4 0
-2643 14 0
-2643 41 0
-2643 54 0
-2643 61 0
2643 -4 -14 -41 -54 -61 0
-2644 4 0
-2644 14 0
-2644 33 0
-2644 61 0
-2644 67 0
2644 -4 -14 -33 -61 -67 0
-2639 2640 2641 2642 2643 2644 0
-2640 2639 2641 2642 2643 2644 0
-2641 2639 2640 2642 2643 2644 0
-2642 2639 2640 2641 2643 2644 0
-2643 2639 2640 2641 2642 2644 0
-2644 2639 2640 2641 2642 2643 0
-2645 21 0
-2645 42 0
-2645 62 0
2645 -21 -42 -62 0
-2646 21 0
-2646 34 0
-2646 70 0
2646 -21 -34 -70 0
-2647 14 0
-2647 34 0
-2647 76 0
2647 -14 -34 -76 0
-2648 11 0
-2648 42 0
-2648 76 0
2648 -11 -42 -76 0
-2649 4 0
-2649 21 0
-2649 41 0
-2649 52 0
-2649 59 0
2649 -4 -21 -41 -52 -59 0
-2650 4 0
-2650 21 0
-2650 41 0
-2650 52 0
-2650 54 0
2650 -4 -21 -41 -52 -54 0
-2651 4 0
-2651 21 0
-2651 33 0
-2651 52 0
-2651 73 0
2651 -4 -21 -33 -52 -73 0
-2652 4 0
-2652 21 0
-2652 33 0
-2652 52 0
-2652 67 0
2652 -4 -21 -33 -52 -67 0
-2653 4 0
-2653 14 0
-2653 41 0
-2653 54 0
-2653 62 0
2653 -4 -14 -41 -54 -62 0
-2654 4 0
-2654 14 0
-2654 33 0
-2654 62 0
-2654 67 0
2654 -4 -14 -33 -62 -67 0
-2655 4 0
-2655 11 0
-2655 41 0
-2655 59 0
-2655 70 0
2655 -4 -11 -41 -59 -70 0
-2656 4 0
-2656 11 0
-2656 33 0
-2656 70 0
-2656 73 0
2656 -4 -11 -33 -70 -73 0
-2657 1 0
-2657 34 0
-2657 70 0
2657 -1 -34 -70 0
-2658 1 0
-2658 4 0
-2658 41 0
-2658 52 0
-2658 54 0
2658 -1 -4 -41 -52 -54 0
-2659 1 0
-2659 4 0
-2659 33 0
-2659 52 0
-2659 67 0
2659 -1 -4 -33 -52 -67 0
-2645 2646 2647 2648 2649 2650 2651 2652 2653 2654 2655 2656 2657 2658 2659 0
-2646 2645 2647 2648 2649 2650 2651 2652 2653 2654 2655 2656 2657 2658 2659 0
-2647 2645 2646 2648 2649 2650 2651 2652 2653 2654 2655 2656 2657 2658 2659 0
-2648 2645 2646 2647 2649 2650 2651 2652 2653 2654 2655 2656 2657 2658 2659 0
-2649 2645 2646 2647 2648 2650 2651 2652 2653 2654 2655 2656 2657 2658 2659 0
-2650 2645 2646 2647 2648 2649 2651 2652 2653 2654 2655 2656 2657 2658 2659 0
-2651 2645 2646 2647 2648 2649 2650 2652 2653 2654 2655 2656 2657 2658 2659 0
-2652 2645 2646 2647 2648 2649 2650 2651 2653 2654 2655 2656 2657 2658 2659 0
-2653 2645 2646 2647 2648 2649 2650 2651 2652 2654 2655 2656 2657 2658 2659 0
-2654 2645 2646 2647 2648 2649 2650 2651 2652 2653 2655 2656 2657 2658 2659 0
-2655 2645 2646 2647 2648 2649 2650 2651 2652 2653 2654 2656 2657 2658 2659 0
-2656 2645 2646 2647 2648 2649 2650 2651 2652 2653 2654 2655 2657 2658 2659 0
-2657 2645 2646 2647 2648 2649 2650 2651 2652 2653 2654 2655 2656 2658 2659 0
-2658 2645 2646 2647 2648 2649 2650 2651 2652 2653 2654 2655 2656 2657 2659 0
-2659 2645 2646 2647 2648 2649 2650 2651 2652 2653 2654 2655 2656 2657 2658 0
-2660 29 0
-2660 34 0
-2660 70 0
2660 -29 -34 -70 0
-2661 21 0
-2661 42 0
-2661 63 0
2661 -21 -42 -63 0
-2662 21 0
-2662 34 0
-2662 74 0
2662 -21 -34 -74 0
-2663 4 0
-2663 29 0
-2663 41 0
-2663 52 0
-2663 54 0
2663 -4 -29 -41 -52 -54 0
-2664 4 0
-2664 29 0
-2664 33 0
-2664 52 0
-2664 67 0
2664 -4 -29 -33 -52 -67 0
-2665 4 0
-2665 14 0
-2665 41 0
-2665 54 0
-2665 63 0
2665 -4 -14 -41 -54 -63 0
-2666 4 0
-2666 14 0
-2666 33 0
-2666 63 0
-2666 67 0
2666 -4 -14 -33 -63 -67 0
-2667 4 0
-2667 11 0
-2667 41 0
-2667 54 0
-2667 74 0
2667 -4 -11 -41 -54 -74 0
-2668 4 0
-2668 11 0
-2668 33 0
-2668 67 0
-2668 74 0
2668 -4 -11 -33 -67 -74 0
-2660 2661 2662 2663 2664 2665 2666 2667 2668 0
-2661 2660 2662 2663 2664 2665 2666 2667 2668 0
-2662 2660 2661 2663 2664 2665 2666 2667 2668 0
-2663 2660 2661 2662 2664 2665 2666 2667 2668 0
-2664 2660 2661 2662 2663 2665 2666 2667 2668 0
-2665 2660 2661 2662 2663 2664 2666 2667 2668 0
-2666 2660 2661 2662 2663 2664 2665 2667 2668 0
-2667 2660 2661 2662 2663 2664 2665 2666 2668 0
-2668 2660 2661 2662 2663 2664 2665 2666 2667 0
-2669 28 0
-2669 42 0
-2669 55 0
2669 -28 -42 -55 0
-2670 28 0
-2670 34 0
-2670 71 0
2670 -28 -34 -71 0
-2671 22 0
-2671 42 0
-2671 61 0
2671 -22 -42 -61 0
-2669 2670 2671 0
-2670 2669 2671 0
-2671 2669 2670 0
-2672 22 0
-2672 42 0
-2672 62 0
2672 -22 -42 -62 0
-2673 21 0
-2673 42 0
-2673 55 0
2673 -21 -42 -55 0
-2674 21 0
-2674 34 0
-2674 71 0
2674 -21 -34 -71 0
-2675 4 0
-2675 22 0
-2675 41 0
-2675 52 0
-2675 59 0
2675 -4 -22 -41 -52 -59 0
-2676 4 0
-2676 22 0
-2676 33 0
-2676 52 0
-2676 73 0
2676 -4 -22 -33 -52 -73 0
-2677 4 0
-2677 14 0
-2677 41 0
-2677 55 0
-2677 59 0
2677 -4 -14 -41 -55 -59 0
-2678 4 0
-2678 14 0
-2678 33 0
-2678 55 0
-2678 73 0
2678 -4 -14 -33 -55 -73 0
-2679 4 0
-2679 11 0
-2679 41 0
-2679 59 0
-2679 71 0
2679 -4 -11 -41 -59 -71 0
-2680 4 0
-2680 11 0
-2680 33 0
-2680 71 0
-2680 73 0
2680 -4 -11 -33 -71 -73 0
-2681 1 0
-2681 42 0
-2681 55 0
2681 -1 -42 -55 0
-2682 1 0
-2682 34 0
-2682 71 0
2682 -1 -34 -71 0
-2672 2673 2674 2675 2676 2677 2678 2679 2680 2681 2682 0
-2673 2672 2674 2675 2676 2677 2678 2679 2680 2681 2682 0
-2674 2672 2673 2675 2676 2677 2678 2679 2680 2681 2682 0
-2675 2672 2673 2674 2676 2677 2678 2679 2680 2681 2682 0
-2676 2672 2673 2674 2675 2677 2678 2679 2680 2681 2682 0
-2677 2672 2673 2674 2675 2676 2678 2679 2680 2681 2682 0
-2678 2672 2673 2674 2675 2676 2677 2679 2680 2681 2682 0
-2679 2672 2673 2674 2675 2676 2677 2678 2680 2681 2682 0
-2680 2672 2673 2674 2675 2676 2677 2678 2679 2681 2682 0
-2681 2672 2673 2674 2675 2676 2677 2678 2679 2680 2682 0
-2682 2672 2673 2674 2675 2676 2677 2678 2679 2680 2681 0
-2683 29 0
-2683 42 0
-2683 55 0
2683 -29 -42 -55 0
-2684 29 0
-2684 34 0
-2684 71 0
2684 -29 -34 -71 0
-2685 22 0
-2685 42 0
-2685 63 0
2685 -22 -42 -63 0
-2686 22 0
-2686 34 0
-2686 74 0
2686 -22 -34 -74 0
-2687 14 0
-2687 34 0
-2687 77 0
2687 -14 -34 -77 0
-2688 11 0
-2688 42 0
-2688 77 0
2688 -11 -42 -77 0
-2683 2684 2685 2686 2687 2688 0
-2684 2683 2685 2686 2687 2688 0
-2685 2683 2684 2686 2687 2688 0
-2686 2683 2684 2685 2687 2688 0
-2687 2683 2684 2685 2686 2688 0
-2688 2683 2684 2685 2686 2687 0
-2689 28 0
-2689 43 0
-2689 53 0
2689 -28 -43 -53 0
-2690 28 0
-2690 35 0
-2690 64 0
2690 -28 -35 -64 0
-2691 20 0
-2691 43 0
-2691 56 0
2691 -20 -43 -56 0
-2692 20 0
-2692 35 0
-2692 72 0
2692 -20 -35 -72 0
-2693 8 0
-2693 56 0
-2693 64 0
2693 -8 -56 -64 0
-2694 8 0
-2694 53 0
-2694 72 0
2694 -8 -53 -72 0
-2695 8 0
-2695 50 0
-2695 75 0
2695 -8 -50 -75 0
-2689 2690 2691 2692 2693 2694 2695 0
-2690 2689 2691 2692 2693 2694 2695 0
-2691 2689 2690 2692 2693 2694 2695 0
-2692 2689 2690 2691 2693 2694 2695 0
-2693 2689 2690 2691 2692 2694 2695 0
-2694 2689 2690 2691 2692 2693 2695 0
-2695 2689 2690 2691 2692 2693 2694 0
-2696 21 0
-2696 43 0
-2696 53 0
2696 -21 -43 -53 0
-2697 21 0
-2697 35 0
-2697 64 0
2697 -21 -35 -64 0
-2698 20 0
-2698 43 0
2698 -20 -43 0
-2699 8 0
-2699 64 0
2699 -8 -64 0
-2700 1 0
-2700 43 0
-2700 53 0
2700 -1 -43 -53 0
-2701 1 0
-2701 35 0
-2701 64 0
2701 -1 -35 -64 0
-2696 2697 2698 2699 2700 2701 0
-2697 2696 2698 2699 2700 2701 0
-2698 2696 2697 2699 2700 2701 0
-2699 2696 2697 2698 2700 2701 0
-2700 2696 2697 2698 2699 2701 0
-2701 2696 2697 2698 2699 2700 0
-2702 29 0
-2702 43 0
-2702 53 0
2702 -29 -43 -53 0
-2703 29 0
-2703 35 0
-2703 64 0
2703 -29 -35 -64 0
-2704 20 0
-2704 49 0
-2704 50 0
2704 -20 -49 -50 0
-2705 20 0
-2705 43 0
-2705 57 0
2705 -20 -43 -57 0
-2706 8 0
-2706 57 0
-2706 64 0
2706 -8 -57 -64 0
-2702 2703 2704 2705 2706 0
-2703 2702 2704 2705 2706 0
-2704 2702 2703 2705 2706 0
-2705 2702 2703 2704 2706 0
-2706 2702 2703 2704 2705 0
-2707 28 0
-2707 35 0
2707 -28 -35 0
-2708 21 0
-2708 43 0
-2708 56 0
2708 -21 -43 -56 0
-2709 21 0
-2709 35 0
-2709 72 0
2709 -21 -35 -72 0
-2710 8 0
-2710 56 0
2710 -8 -56 0
-2707 2708 2709 2710 0
-2708 2707 2709 2710 0
-2709 2707 2708 2710 0
-2710 2707 2708 2709 0
-2711 21 0
-2711 43 0
2711 -21 -43 0
-2712 21 0
-2712 35 0
2712 -21 -35 0
-2713 8 0
2713 -8 0
-2714 8 0
-2714 50 0
-2714 76 0
2714 -8 -50 -76 0
-2715 1 0
-2715 35 0
2715 -1 -35 0
-2711 2712 2713 2714 2715 0
-2712 2711 2713 2714 2715 0
-2713 2711 2712 2714 2715 0
-2714 2711 2712 2713 2715 0
-2715 2711 2712 2713 2714 0
-2716 29 0
-2716 35 0
2716 -29 -35 0
-2717 21 0
-2717 49 0
-2717 50 0
2717 -21 -49 -50 0
-2718 21 0
-2718 43 0
-2718 57 0
2718 -21 -43 -57 0
-2719 8 0
-2719 57 0
2719 -8 -57 0
-2716 2717 2718 2719 0
-2717 2716 2718 2719 0
-2718 2716 2717 2719 0
-2719 2716 2717 2718 0
-2720 28 0
-2720 47 0
-2720 50 0
2720 -28 -47 -50 0
-2721 28 0
-2721 35 0
-2721 65 0
2721 -28 -35 -65 0
-2722 22 0
-2722 43 0
-2722 56 0
2722 -22 -43 -56 0
-2723 22 0
-2723 35 0
-2723 72 0
2723 -22 -35 -72 0
-2724 8 0
-2724 56 0
-2724 65 0
2724 -8 -56 -65 0
-2720 2721 2722 2723 2724 0
-2721 2720 2722 2723 2724 0
-2722 2720 2721 2723 2724 0
-2723 2720 2721 2722 2724 0
-2724 2720 2721 2722 2723 0
-2725 22 0
-2725 43 0
2725 -22 -43 0
-2726 21 0
-2726 47 0
-2726 50 0
2726 -21 -47 -50 0
-2727 21 0
-2727 35 0
-2727 65 0
2727 -21 -35 -65 0
-2728 8 0
-2728 65 0
2728 -8 -65 0
-2729 1 0
-2729 47 0
-2729 50 0
2729 -1 -47 -50 0
-2730 1 0
-2730 35 0
-2730 65 0
2730 -1 -35 -65 0
-2725 2726 2727 2728 2729 2730 0
-2726 2725 2727 2728 2729 2730 0
-2727 2725 2726 2728 2729 2730 0
-2728 2725 2726 2727 2729 2730 0
-2729 2725 2726 2727 2728 2730 0
-2730 2725 2726 2727 2728 2729 0
-2731 29 0
-2731 47 0
-2731 50 0
2731 -29 -47 -50 0
-2732 29 0
-2732 35 0
-2732 65 0
2732 -29 -35 -65 0
-2733 22 0
-2733 49 0
-2733 50 0
2733 -22 -49 -50 0
-2734 22 0
-2734 43 0
-2734 57 0
2734 -22 -43 -57 0
-2735 8 0
-2735 57 0
-2735 65 0
2735 -8 -57 -65 0
-2736 8 0
-2736 50 0
-2736 77 0
2736 -8 -50 -77 0
-2731 2732 2733 2734 2735 2736 0
-2732 2731 2733 2734 2735 2736 0
-2733 2731 2732 2734 2735 2736 0
-2734 2731 2732 2733 2735 2736 0
-2735 2731 2732 2733 2734 2736 0
-2736 2731 2732 2733 2734 2735 0
-2737 28 0
-2737 44 0
-2737 53 0
2737 -28 -44 -53 0
-2738 28 0
-2738 35 0
-2738 66 0
2738 -28 -35 -66 0
-2739 20 0
-2739 44 0
-2739 56 0
2739 -20 -44 -56 0
-2740 8 0
-2740 56 0
-2740 66 0
2740 -8 -56 -66 0
-2737 2738 2739 2740 0
-2738 2737 2739 2740 0
-2739 2737 2738 2740 0
-2740 2737 2738 2739 0
-2741 21 0
-2741 44 0
-2741 53 0
2741 -21 -44 -53 0
-2742 21 0
-2742 35 0
-2742 66 0
2742 -21 -35 -66 0
-2743 20 0
-2743 44 0
2743 -20 -44 0
-2744 20 0
-2744 35 0
-2744 73 0
2744 -20 -35 -73 0
-2745 8 0
-2745 66 0
2745 -8 -66 0
-2746 8 0
-2746 53 0
-2746 73 0
2746 -8 -53 -73 0
-2747 1 0
-2747 44 0
-2747 53 0
2747 -1 -44 -53 0
-2748 1 0
-2748 35 0
-2748 66 0
2748 -1 -35 -66 0
-2741 2742 2743 2744 2745 2746 2747 2748 0
-2742 2741 2743 2744 2745 2746 2747 2748 0
-2743 2741 2742 2744 2745 2746 2747 2748 0
-2744 2741 2742 2743 2745 2746 2747 2748 0
-2745 2741 2742 2743 2744 2746 2747 2748 0
-2746 2741 2742 2743 2744 2745 2747 2748 0
-2747 2741 2742 2743 2744 2745 2746 2748 0
-2748 2741 2742 2743 2744 2745 2746 2747 0
-2749 29 0
-2749 44 0
-2749 53 0
2749 -29 -44 -53 0
-2750 29 0
-2750 35 0
-2750 66 0
2750 -29 -35 -66 0
-2751 20 0
-2751 44 0
-2751 57 0
2751 -20 -44 -57 0
-2752 8 0
-2752 57 0
-2752 66 0
2752 -8 -57 -66 0
-2749 2750 2751 2752 0
-2750 2749 2751 2752 0
-2751 2749 2750 2752 0
-2752 2749 2750 2751 0
-2753 28 0
-2753 35 0
-2753 67 0
2753 -28 -35 -67 0
-2754 21 0
-2754 44 0
-2754 56 0
2754 -21 -44 -56 0
-2755 8 0
-2755 56 0
-2755 67 0
2755 -8 -56 -67 0
-2753 2754 2755 0
-2754 2753 2755 0
-2755 2753 2754 0
-2756 21 0
-2756 44 0
2756 -21 -44 0
-2757 21 0
-2757 35 0
-2757 73 0
2757 -21 -35 -73 0
-2758 21 0
-2758 35 0
-2758 67 0
2758 -21 -35 -67 0
-2759 8 0
-2759 67 0
2759 -8 -67 0
-2760 1 0
-2760 35 0
-2760 67 0
2760 -1 -35 -67 0
-2756 2757 2758 2759 2760 0
-2757 2756 2758 2759 2760 0
-2758 2756 2757 2759 2760 0
-2759 2756 2757 2758 2760 0
-2760 2756 2757 2758 2759 0
-2761 29 0
-2761 35 0
-2761 67 0
2761 -29 -35 -67 0
-2762 21 0
-2762 44 0
-2762 57 0
2762 -21 -44 -57 0
-2763 8 0
-2763 57 0
-2763 67 0
2763 -8 -57 -67 0
-2761 2762 2763 0
-2762 2761 2763 0
-2763 2761 2762 0
-2764 28 0
-2764 35 0
-2764 68 0
2764 -28 -35 -68 0
-2765 22 0
-2765 44 0
-2765 56 0
2765 -22 -44 -56 0
-2766 8 0
-2766 56 0
-2766 68 0
2766 -8 -56 -68 0
-2764 2765 2766 0
-2765 2764 2766 0
-2766 2764 2765 0
-2767 22 0
-2767 44 0
2767 -22 -44 0
-2768 22 0
-2768 35 0
-2768 73 0
2768 -22 -35 -73 0
-2769 21 0
-2769 35 0
-2769 68 0
2769 -21 -35 -68 0
-2770 8 0
-2770 68 0
2770 -8 -68 0
-2771 1 0
-2771 35 0
-2771 68 0
2771 -1 -35 -68 0
-2767 2768 2769 2770 2771 0
-2768 2767 2769 2770 2771 0
-2769 2767 2768 2770 2771 0
-2770 2767 2768 2769 2771 0
-2771 2767 2768 2769 2770 0
-2772 29 0
-2772 35 0
-2772 68 0
2772 -29 -35 -68 0
-2773 22 0
-2773 44 0
-2773 57 0
2773 -22 -44 -57 0
-2774 8 0
-2774 57 0
-2774 68 0
2774 -8 -57 -68 0
-2772 2773 2774 0
-2773 2772 2774 0
-2774 2772 2773 0
-2775 28 0
-2775 45 0
-2775 53 0
2775 -28 -45 -53 0
-2776 28 0
-2776 35 0
-2776 69 0
2776 -28 -35 -69 0
-2777 20 0
-2777 45 0
-2777 56 0
2777 -20 -45 -56 0
-2778 14 0
-2778 35 0
-2778 75 0
2778 -14 -35 -75 0
-2779 8 0
-2779 56 0
-2779 69 0
2779 -8 -56 -69 0
-2775 2776 2777 2778 2779 0
-2776 2775 2777 2778 2779 0
-2777 2775 2776 2778 2779 0
-2778 2775 2776 2777 2779 0
-2779 2775 2776 2777 2778 0
-2780 21 0
-2780 45 0
-2780 53 0
2780 -21 -45 -53 0
-2781 21 0
-2781 35 0
-2781 69 0
2781 -21 -35 -69 0
-2782 20 0
-2782 45 0
2782 -20 -45 0
-2783 8 0
-2783 69 0
2783 -8 -69 0
-2784 1 0
-2784 45 0
-2784 53 0
2784 -1 -45 -53 0
-2785 1 0
-2785 35 0
-2785 69 0
2785 -1 -35 -69 0
-2780 2781 2782 2783 2784 2785 0
-2781 2780 2782 2783 2784 2785 0
-2782 2780 2781 2783 2784 2785 0
-2783 2780 2781 2782 2784 2785 0
-2784 2780 2781 2782 2783 2785 0
-2785 2780 2781 2782 2783 2784 0
-2786 29 0
-2786 45 0
-2786 53 0
2786 -29 -45 -53 0
-2787 29 0
-2787 35 0
-2787 69 0
2787 -29 -35 -69 0
-2788 20 0
-2788 45 0
-2788 57 0
2788 -20 -45 -57 0
-2789 20 0
-2789 35 0
-2789 74 0
2789 -20 -35 -74 0
-2790 14 0
-2790 49 0
-2790 53 0
2790 -14 -49 -53 0
-2791 8 0
-2791 57 0
-2791 69 0
2791 -8 -57 -69 0
-2792 8 0
-2792 53 0
-2792 74 0
2792 -8 -53 -74 0
-2786 2787 2788 2789 2790 2791 2792 0
-2787 2786 2788 2789 2790 2791 2792 0
-2788 2786 2787 2789 2790 2791 2792 0
-2789 2786 2787 2788 2790 2791 2792 0
-2790 2786 2787 2788 2789 2791 2792 0
-2791 2786 2787 2788 2789 2790 2792 0
-2792 2786 2787 2788 2789 2790 2791 0
-2793 28 0
-2793 35 0
-2793 70 0
2793 -28 -35 -70 0
-2794 21 0
-2794 45 0
-2794 56 0
2794 -21 -45 -56 0
-2795 8 0
-2795 56 0
-2795 70 0
2795 -8 -56 -70 0
-2793 2794 2795 0
-2794 2793 2795 0
-2795 2793 2794 0
-2796 21 0
-2796 45 0
2796 -21 -45 0
-2797 21 0
-2797 35 0
-2797 70 0
2797 -21 -35 -70 0
-2798 14 0
-2798 35 0
-2798 76 0
2798 -14 -35 -76 0
-2799 8 0
-2799 70 0
2799 -8 -70 0
-2800 1 0
-2800 35 0
-2800 70 0
2800 -1 -35 -70 0
-2796 2797 2798 2799 2800 0
-2797 2796 2798 2799 2800 0
-2798 2796 2797 2799 2800 0
-2799 2796 2797 2798 2800 0
-2800 2796 2797 2798 2799 0
-2801 29 0
-2801 35 0
-2801 70 0
2801 -29 -35 -70 0
-2802 21 0
-2802 45 0
-2802 57 0
2802 -21 -45 -57 0
-2803 21 0
-2803 35 0
-2803 74 0
2803 -21 -35 -74 0
-2804 8 0
-2804 57 0
-2804 70 0
2804 -8 -57 -70 0
-2801 2802 2803 2804 0
-2802 2801 2803 2804 0
-2803 2801 2802 2804 0
-2804 2801 2802 2803 0
-2805 28 0
-2805 35 0
-2805 71 0
2805 -28 -35 -71 0
-2806 22 0
-2806 45 0
-2806 56 0
2806 -22 -45 -56 0
-2807 14 0
-2807 47 0
-2807 56 0
2807 -14 -47 -56 0
-2808 8 0
-2808 56 0
-2808 71 0
2808 -8 -56 -71 0
-2805 2806 2807 2808 0
-2806 2805 2807 2808 0
-2807 2805 2806 2808 0
-2808 2805 2806 2807 0
-2809 22 0
-2809 45 0
2809 -22 -45 0
-2810 21 0
-2810 35 0
-2810 71 0
2810 -21 -35 -71 0
-2811 14 0
-2811 47 0
2811 -14 -47 0
-2812 8 0
-2812 71 0
2812 -8 -71 0
-2813 1 0
-2813 35 0
-2813 71 0
2813 -1 -35 -71 0
-2809 2810 2811 2812 2813 0
-2810 2809 2811 2812 2813 0
-2811 2809 2810 2812 2813 0
-2812 2809 2810 2811 2813 0
-2813 2809 2810 2811 2812 0
-2814 29 0
-2814 35 0
-2814 71 0
2814 -29 -35 -71 0
-2815 22 0
-2815 45 0
-2815 57 0
2815 -22 -45 -57 0
-2816 22 0
-2816 35 0
-2816 74 0
2816 -22 -35 -74 0
-2817 14 0
-2817 47 0
-2817 57 0
2817 -14 -47 -57 0
-2818 14 0
-2818 35 0
-2818 77 0
2818 -14 -35 -77 0
-2819 8 0
-2819 57 0
-2819 71 0
2819 -8 -57 -71 0
-2814 2815 2816 2817 2818 2819 0
-2815 2814 2816 2817 2818 2819 0
-2816 2814 2815 2817 2818 2819 0
-2817 2814 2815 2816 2818 2819 0
-2818 2814 2815 2816 2817 2819 0
-2819 2814 2815 2816 2817 2818 0
-2820 28 0
-2820 36 0
-2820 64 0
2820 -28 -36 -64 0
-2821 20 0
-2821 43 0
-2821 58 0
2821 -20 -43 -58 0
-2822 20 0
-2822 36 0
-2822 72 0
2822 -20 -36 -72 0
-2823 8 0
-2823 58 0
-2823 64 0
2823 -8 -58 -64 0
-2820 2821 2822 2823 0
-2821 2820 2822 2823 0
-2822 2820 2821 2823 0
-2823 2820 2821 2822 0
-2824 21 0
-2824 36 0
-2824 64 0
2824 -21 -36 -64 0
-2825 20 0
-2825 43 0
-2825 59 0
2825 -20 -43 -59 0
-2826 8 0
-2826 59 0
-2826 64 0
2826 -8 -59 -64 0
-2827 1 0
-2827 36 0
-2827 64 0
2827 -1 -36 -64 0
-2824 2825 2826 2827 0
-2825 2824 2826 2827 0
-2826 2824 2825 2827 0
-2827 2824 2825 2826 0
-2828 29 0
-2828 36 0
-2828 64 0
2828 -29 -36 -64 0
-2829 20 0
-2829 43 0
-2829 60 0
2829 -20 -43 -60 0
-2830 8 0
-2830 60 0
-2830 64 0
2830 -8 -60 -64 0
-2828 2829 2830 0
-2829 2828 2830 0
-2830 2828 2829 0
-2831 28 0
-2831 43 0
-2831 54 0
2831 -28 -43 -54 0
-2832 28 0
-2832 36 0
2832 -28 -36 0
-2833 21 0
-2833 43 0
-2833 58 0
2833 -21 -43 -58 0
-2834 21 0
-2834 36 0
-2834 72 0
2834 -21 -36 -72 0
-2835 8 0
-2835 58 0
2835 -8 -58 0
-2836 8 0
-2836 54 0
-2836 72 0
2836 -8 -54 -72 0
-2831 2832 2833 2834 2835 2836 0
-2832 2831 2833 2834 2835 2836 0
-2833 2831 2832 2834 2835 2836 0
-2834 2831 2832 2833 2835 2836 0
-2835 2831 2832 2833 2834 2836 0
-2836 2831 2832 2833 2834 2835 0
-2837 21 0
-2837 43 0
-2837 59 0
2837 -21 -43 -59 0
-2838 21 0
-2838 43 0
-2838 54 0
2838 -21 -43 -54 0
-2839 21 0
-2839 36 0
2839 -21 -36 0
-2840 8 0
-2840 59 0
2840 -8 -59 0
-2841 1 0
-2841 43 0
-2841 54 0
2841 -1 -43 -54 0
-2842 1 0
-2842 36 0
2842 -1 -36 0
-2837 2838 2839 2840 2841 2842 0
-2838 2837 2839 2840 2841 2842 0
-2839 2837 2838 2840 2841 2842 0
-2840 2837 2838 2839 2841 2842 0
-2841 2837 2838 2839 2840 2842 0
-2842 2837 2838 2839 2840 2841 0
-2843 29 0
-2843 43 0
-2843 54 0
2843 -29 -43 -54 0
-2844 29 0
-2844 36 0
2844 -29 -36 0
-2845 21 0
-2845 43 0
-2845 60 0
2845 -21 -43 -60 0
-2846 8 0
-2846 60 0
2846 -8 -60 0
-2843 2844 2845 2846 0
-2844 2843 2845 2846 0
-2845 2843 2844 2846 0
-2846 2843 2844 2845 0
-2847 28 0
-2847 36 0
-2847 65 0
2847 -28 -36 -65 0
-2848 22 0
-2848 43 0
-2848 58 0
2848 -22 -43 -58 0
-2849 22 0
-2849 36 0
-2849 72 0
2849 -22 -36 -72 0
-2850 8 0
-2850 58 0
-2850 65 0
2850 -8 -58 -65 0
-2847 2848 2849 2850 0
-2848 2847 2849 2850 0
-2849 2847 2848 2850 0
-2850 2847 2848 2849 0
-2851 22 0
-2851 43 0
-2851 59 0
2851 -22 -43 -59 0
-2852 21 0
-2852 36 0
-2852 65 0
2852 -21 -36 -65 0
-2853 8 0
-2853 59 0
-2853 65 0
2853 -8 -59 -65 0
-2854 1 0
-2854 36 0
-2854 65 0
2854 -1 -36 -65 0
-2851 2852 2853 2854 0
-2852 2851 2853 2854 0
-2853 2851 2852 2854 0
-2854 2851 2852 2853 0
-2855 29 0
-2855 36 0
-2855 65 0
2855 -29 -36 -65 0
-2856 22 0
-2856 43 0
-2856 60 0
2856 -22 -43 -60 0
-2857 8 0
-2857 60 0
-2857 65 0
2857 -8 -60 -65 0
-2855 2856 2857 0
-2856 2855 2857 0
-2857 2855 2856 0
-2858 28 0
-2858 36 0
-2858 66 0
2858 -28 -36 -66 0
-2859 20 0
-2859 44 0
-2859 58 0
2859 -20 -44 -58 0
-2860 8 0
-2860 58 0
-2860 66 0
2860 -8 -58 -66 0
-2861 8 0
-2861 51 0
-2861 75 0
2861 -8 -51 -75 0
-2858 2859 2860 2861 0
-2859 2858 2860 2861 0
-2860 2858 2859 2861 0
-2861 2858 2859 2860 0
-2862 21 0
-2862 36 0
-2862 66 0
2862 -21 -36 -66 0
-2863 20 0
-2863 44 0
-2863 59 0
2863 -20 -44 -59 0
-2864 20 0
-2864 36 0
-2864 73 0
2864 -20 -36 -73 0
-2865 8 0
-2865 59 0
-2865 66 0
2865 -8 -59 -66 0
-2866 1 0
-2866 36 0
-2866 66 0
2866 -1 -36 -66 0
-2862 2863 2864 2865 2866 0
-2863 2862 2864 2865 2866 0
-2864 2862 2863 2865 2866 0
-2865 2862 2863 2864 2866 0
-2866 2862 2863 2864 2865 0
-2867 29 0
-2867 36 0
-2867 66 0
2867 -29 -36 -66 0
-2868 20 0
-2868 49 0
-2868 51 0
2868 -20 -49 -51 0
-2869 20 0
-2869 44 0
-2869 60 0
2869 -20 -44 -60 0
-2870 8 0
-2870 60 0
-2870 66 0
2870 -8 -60 -66 0
-2867 2868 2869 2870 0
-2868 2867 2869 2870 0
-2869 2867 2868 2870 0
-2870 2867 2868 2869 0
-2871 28 0
-2871 44 0
-2871 54 0
2871 -28 -44 -54 0
-2872 28 0
-2872 36 0
-2872 67 0
2872 -28 -36 -67 0
-2873 21 0
-2873 44 0
-2873 58 0
2873 -21 -44 -58 0
-2874 8 0
-2874 58 0
-2874 67 0
2874 -8 -58 -67 0
-2871 2872 2873 2874 0
-2872 2871 2873 2874 0
-2873 2871 2872 2874 0
-2874 2871 2872 2873 0
-2875 21 0
-2875 44 0
-2875 59 0
2875 -21 -44 -59 0
-2876 21 0
-2876 44 0
-2876 54 0
2876 -21 -44 -54 0
-2877 21 0
-2877 36 0
-2877 73 0
2877 -21 -36 -73 0
-2878 21 0
-2878 36 0
-2878 67 0
2878 -21 -36 -67 0
-2879 8 0
-2879 59 0
-2879 67 0
2879 -8 -59 -67 0
-2880 8 0
-2880 54 0
-2880 73 0
2880 -8 -54 -73 0
-2881 8 0
-2881 51 0
-2881 76 0
2881 -8 -51 -76 0
-2882 1 0
-2882 44 0
-2882 54 0
2882 -1 -44 -54 0
-2883 1 0
-2883 36 0
-2883 67 0
2883 -1 -36 -67 0
-2875 2876 2877 2878 2879 2880 2881 2882 2883 0
-2876 2875 2877 2878 2879 2880 2881 2882 2883 0
-2877 2875 2876 2878 2879 2880 2881 2882 2883 0
-2878 2875 2876 2877 2879 2880 2881 2882 2883 0
-2879 2875 2876 2877 2878 2880 2881 2882 2883 0
-2880 2875 2876 2877 2878 2879 2881 2882 2883 0
-2881 2875 2876 2877 2878 2879 2880 2882 2883 0
-2882 2875 2876 2877 2878 2879 2880 2881 2883 0
-2883 2875 2876 2877 2878 2879 2880 2881 2882 0
-2884 29 0
-2884 44 0
-2884 54 0
2884 -29 -44 -54 0
-2885 29 0
-2885 36 0
-2885 67 0
2885 -29 -36 -67 0
-2886 21 0
-2886 49 0
-2886 51 0
2886 -21 -49 -51 0
-2887 21 0
-2887 44 0
-2887 60 0
2887 -21 -44 -60 0
-2888 8 0
-2888 60 0
-2888 67 0
2888 -8 -60 -67 0
-2884 2885 2886 2887 2888 0
-2885 2884 2886 2887 2888 0
-2886 2884 2885 2887 2888 0
-2887 2884 2885 2886 2888 0
-2888 2884 2885 2886 2887 0
-2889 28 0
-2889 47 0
-2889 51 0
2889 -28 -47 -51 0
-2890 28 0
-2890 36 0
-2890 68 0
2890 -28 -36 -68 0
-2891 22 0
-2891 44 0
-2891 58 0
2891 -22 -44 -58 0
-2892 8 0
-2892 58 0
-2892 68 0
2892 -8 -58 -68 0
-2889 2890 2891 2892 0
-2890 2889 2891 2892 0
-2891 2889 2890 2892 0
-2892 2889 2890 2891 0
-2893 22 0
-2893 44 0
-2893 59 0
2893 -22 -44 -59 0
-2894 22 0
-2894 36 0
-2894 73 0
2894 -22 -36 -73 0
-2895 21 0
-2895 47 0
-2895 51 0
2895 -21 -47 -51 0
-2896 21 0
-2896 36 0
-2896 68 0
2896 -21 -36 -68 0
-2897 8 0
-2897 59 0
-2897 68 0
2897 -8 -59 -68 0
-2898 1 0
-2898 47 0
-2898 51 0
2898 -1 -47 -51 0
-2899 1 0
-2899 36 0
-2899 68 0
2899 -1 -36 -68 0
-2893 2894 2895 2896 2897 2898 2899 0
-2894 2893 2895 2896 2897 2898 2899 0
-2895 2893 2894 2896 2897 2898 2899 0
-2896 2893 2894 2895 2897 2898 2899 0
-2897 2893 2894 2895 2896 2898 2899 0
-2898 2893 2894 2895 2896 2897 2899 0
-2899 2893 2894 2895 2896 2897 2898 0
-2900 29 0
-2900 47 0
-2900 51 0
2900 -29 -47 -51 0
-2901 29 0
-2901 36 0
-2901 68 0
2901 -29 -36 -68 0
-2902 22 0
-2902 49 0
-2902 51 0
2902 -22 -49 -51 0
-2903 22 0
-2903 44 0
-2903 60 0
2903 -22 -44 -60 0
-2904 8 0
-2904 60 0
-2904 68 0
2904 -8 -60 -68 0
-2905 8 0
-2905 51 0
-2905 77 0
2905 -8 -51 -77 0
-2900 2901 2902 2903 2904 2905 0
-2901 2900 2902 2903 2904 2905 0
-2902 2900 2901 2903 2904 2905 0
-2903 2900 2901 2902 2904 2905 0
-2904 2900 2901 2902 2903 2905 0
-2905 2900 2901 2902 2903 2904 0
-2906 28 0
-2906 36 0
-2906 69 0
2906 -28 -36 -69 0
-2907 20 0
-2907 45 0
-2907 58 0
2907 -20 -45 -58 0
-2908 14 0
-2908 36 0
-2908 75 0
2908 -14 -36 -75 0
-2909 8 0
-2909 58 0
-2909 69 0
2909 -8 -58 -69 0
-2906 2907 2908 2909 0
-2907 2906 2908 2909 0
-2908 2906 2907 2909 0
-2909 2906 2907 2908 0
-2910 21 0
-2910 36 0
-2910 69 0
2910 -21 -36 -69 0
-2911 20 0
-2911 45 0
-2911 59 0
2911 -20 -45 -59 0
-2912 8 0
-2912 59 0
-2912 69 0
2912 -8 -59 -69 0
-2913 1 0
-2913 36 0
-2913 69 0
2913 -1 -36 -69 0
-2910 2911 2912 2913 0
-2911 2910 2912 2913 0
-2912 2910 2911 2913 0
-2913 2910 2911 2912 0
-2914 29 0
-2914 36 0
-2914 69 0
2914 -29 -36 -69 0
-2915 20 0
-2915 45 0
-2915 60 0
2915 -20 -45 -60 0
-2916 20 0
-2916 36 0
-2916 74 0
2916 -20 -36 -74 0
-2917 8 0
-2917 60 0
-2917 69 0
2917 -8 -60 -69 0
-2914 2915 2916 2917 0
-2915 2914 2916 2917 0
-2916 2914 2915 2917 0
-2917 2914 2915 2916 0
-2918 28 0
-2918 45 0
-2918 54 0
2918 -28 -45 -54 0
-2919 28 0
-2919 36 0
-2919 70 0
2919 -28 -36 -70 0
-2920 21 0
-2920 45 0
-2920 58 0
2920 -21 -45 -58 0
-2921 8 0
-2921 58 0
-2921 70 0
2921 -8 -58 -70 0
-2918 2919 2920 2921 0
-2919 2918 2920 2921 0
-2920 2918 2919 2921 0
-2921 2918 2919 2920 0
-2922 21 0
-2922 45 0
-2922 59 0
2922 -21 -45 -59 0
-2923 21 0
-2923 45 0
-2923 54 0
2923 -21 -45 -54 0
-2924 21 0
-2924 36 0
-2924 70 0
2924 -21 -36 -70 0
-2925 14 0
-2925 36 0
-2925 76 0
2925 -14 -36 -76 0
-2926 8 0
-2926 59 0
-2926 70 0
2926 -8 -59 -70 0
-2927 1 0
-2927 45 0
-2927 54 0
2927 -1 -45 -54 0
-2928 1 0
-2928 36 0
-2928 70 0
2928 -1 -36 -70 0
-2922 2923 2924 2925 2926 2927 2928 0
-2923 2922 2924 2925 2926 2927 2928 0
-2924 2922 2923 2925 2926 2927 2928 0
-2925 2922 2923 2924 2926 2927 2928 0
-2926 2922 2923 2924 2925 2927 2928 0
-2927 2922 2923 2924 2925 2926 2928 0
-2928 2922 2923 2924 2925 2926 2927 0
-2929 29 0
-2929 45 0
-2929 54 0
2929 -29 -45 -54 0
-2930 29 0
-2930 36 0
-2930 70 0
2930 -29 -36 -70 0
-2931 21 0
-2931 45 0
-2931 60 0
2931 -21 -45 -60 0
-2932 21 0
-2932 36 0
-2932 74 0
2932 -21 -36 -74 0
-2933 14 0
-2933 49 0
-2933 54 0
2933 -14 -49 -54 0
-2934 8 0
-2934 60 0
-2934 70 0
2934 -8 -60 -70 0
-2935 8 0
-2935 54 0
-2935 74 0
2935 -8 -54 -74 0
-2929 2930 2931 2932 2933 2934 2935 0
-2930 2929 2931 2932 2933 2934 2935 0
-2931 2929 2930 2932 2933 2934 2935 0
-2932 2929 2930 2931 2933 2934 2935 0
-2933 2929 2930 2931 2932 2934 2935 0
-2934 2929 2930 2931 2932 2933 2935 0
-2935 2929 2930 2931 2932 2933 2934 0
-2936 28 0
-2936 36 0
-2936 71 0
2936 -28 -36 -71 0
-2937 22 0
-2937 45 0
-2937 58 0
2937 -22 -45 -58 0
-2938 14 0
-2938 47 0
-2938 58 0
2938 -14 -47 -58 0
-2939 8 0
-2939 58 0
-2939 71 0
2939 -8 -58 -71 0
-2936 2937 2938 2939 0
-2937 2936 2938 2939 0
-2938 2936 2937 2939 0
-2939 2936 2937 2938 0
-2940 22 0
-2940 45 0
-2940 59 0
2940 -22 -45 -59 0
-2941 21 0
-2941 36 0
-2941 71 0
2941 -21 -36 -71 0
-2942 14 0
-2942 47 0
-2942 59 0
2942 -14 -47 -59 0
-2943 8 0
-2943 59 0
-2943 71 0
2943 -8 -59 -71 0
-2944 1 0
-2944 36 0
-2944 71 0
2944 -1 -36 -71 0
-2940 2941 2942 2943 2944 0
-2941 2940 2942 2943 2944 0
-2942 2940 2941 2943 2944 0
-2943 2940 2941 2942 2944 0
-2944 2940 2941 2942 2943 0
-2945 29 0
-2945 36 0
-2945 71 0
2945 -29 -36 -71 0
-2946 22 0
-2946 45 0
-2946 60 0
2946 -22 -45 -60 0
-2947 22 0
-2947 36 0
-2947 74 0
2947 -22 -36 -74 0
-2948 14 0
-2948 47 0
-2948 60 0
2948 -14 -47 -60 0
-2949 14 0
-2949 36 0
-2949 77 0
2949 -14 -36 -77 0
-2950 8 0
-2950 60 0
-2950 71 0
2950 -8 -60 -71 0
-2945 2946 2947 2948 2949 2950 0
-2946 2945 2947 2948 2949 2950 0
-2947 2945 2946 2948 2949 2950 0
-2948 2945 2946 2947 2949 2950 0
-2949 2945 2946 2947 2948 2950 0
-2950 2945 2946 2947 2948 2949 0
-2951 28 0
-2951 37 0
-2951 64 0
2951 -28 -37 -64 0
-2952 20 0
-2952 43 0
-2952 61 0
2952 -20 -43 -61 0
-2953 20 0
-2953 37 0
-2953 72 0
2953 -20 -37 -72 0
-2954 11 0
-2954 43 0
-2954 75 0
2954 -11 -43 -75 0
-2955 8 0
-2955 61 0
-2955 64 0
2955 -8 -61 -64 0
-2951 2952 2953 2954 2955 0
-2952 2951 2953 2954 2955 0
-2953 2951 2952 2954 2955 0
-2954 2951 2952 2953 2955 0
-2955 2951 2952 2953 2954 0
-2956 21 0
-2956 37 0
-2956 64 0
2956 -21 -37 -64 0
-2957 20 0
-2957 43 0
-2957 62 0
2957 -20 -43 -62 0
-2958 8 0
-2958 62 0
-2958 64 0
2958 -8 -62 -64 0
-2959 1 0
-2959 37 0
-2959 64 0
2959 -1 -37 -64 0
-2956 2957 2958 2959 0
-2957 2956 2958 2959 0
-2958 2956 2957 2959 0
-2959 2956 2957 2958 0
-2960 29 0
-2960 37 0
-2960 64 0
2960 -29 -37 -64 0
-2961 20 0
-2961 43 0
-2961 63 0
2961 -20 -43 -63 0
-2962 11 0
-2962 49 0
-2962 64 0
2962 -11 -49 -64 0
-2963 8 0
-2963 63 0
-2963 64 0
2963 -8 -63 -64 0
-2960 2961 2962 2963 0
-2961 2960 2962 2963 0
-2962 2960 2961 2963 0
-2963 2960 2961 2962 0
-2964 28 0
-2964 37 0
2964 -28 -37 0
-2965 21 0
-2965 43 0
-2965 61 0
2965 -21 -43 -61 0
-2966 21 0
-2966 37 0
-2966 72 0
2966 -21 -37 -72 0
-2967 8 0
-2967 61 0
2967 -8 -61 0
-2964 2965 2966 2967 0
-2965 2964 2966 2967 0
-2966 2964 2965 2967 0
-2967 2964 2965 2966 0
-2968 21 0
-2968 43 0
-2968 62 0
2968 -21 -43 -62 0
-2969 21 0
-2969 37 0
2969 -21 -37 0
-2970 11 0
-2970 43 0
-2970 76 0
2970 -11 -43 -76 0
-2971 8 0
-2971 62 0
2971 -8 -62 0
-2972 1 0
-2972 37 0
2972 -1 -37 0
-2968 2969 2970 2971 2972 0
-2969 2968 2970 2971 2972 0
-2970 2968 2969 2971 2972 0
-2971 2968 2969 2970 2972 0
-2972 2968 2969 2970 2971 0
-2973 29 0
-2973 37 0
2973 -29 -37 0
-2974 21 0
-2974 43 0
-2974 63 0
2974 -21 -43 -63 0
-2975 11 0
-2975 49 0
2975 -11 -49 0
-2976 8 0
-2976 63 0
2976 -8 -63 0
-2973 2974 2975 2976 0
-2974 2973 2975 2976 0
-2975 2973 2974 2976 0
-2976 2973 2974 2975 0
-2977 28 0
-2977 43 0
-2977 55 0
2977 -28 -43 -55 0
-2978 28 0
-2978 37 0
-2978 65 0
2978 -28 -37 -65 0
-2979 22 0
-2979 43 0
-2979 61 0
2979 -22 -43 -61 0
-2980 22 0
-2980 37 0
-2980 72 0
2980 -22 -37 -72 0
-2981 11 0
-2981 47 0
-2981 72 0
2981 -11 -47 -72 0
-2982 8 0
-2982 61 0
-2982 65 0
2982 -8 -61 -65 0
-2983 8 0
-2983 55 0
-2983 72 0
2983 -8 -55 -72 0
-2977 2978 2979 2980 2981 2982 2983 0
-2978 2977 2979 2980 2981 2982 2983 0
-2979 2977 2978 2980 2981 2982 2983 0
-2980 2977 2978 2979 2981 2982 2983 0
-2981 2977 2978 2979 2980 2982 2983 0
-2982 2977 2978 2979 2980 2981 2983 0
-2983 2977 2978 2979 2980 2981 2982 0
-2984 22 0
-2984 43 0
-2984 62 0
2984 -22 -43 -62 0
-2985 21 0
-2985 43 0
-2985 55 0
2985 -21 -43 -55 0
-2986 21 0
-2986 37 0
-2986 65 0
2986 -21 -37 -65 0
-2987 8 0
-2987 62 0
-2987 65 0
2987 -8 -62 -65 0
-2988 1 0
-2988 43 0
-2988 55 0
2988 -1 -43 -55 0
-2989 1 0
-2989 37 0
-2989 65 0
2989 -1 -37 -65 0
-2984 2985 2986 2987 2988 2989 0
-2985 2984 2986 2987 2988 2989 0
-2986 2984 2985 2987 2988 2989 0
-2987 2984 2985 2986 2988 2989 0
-2988 2984 2985 2986 2987 2989 0
-2989 2984 2985 2986 2987 2988 0
-2990 29 0
-2990 43 0
-2990 55 0
2990 -29 -43 -55 0
-2991 29 0
-2991 37 0
-2991 65 0
2991 -29 -37 -65 0
-2992 22 0
-2992 43 0
-2992 63 0
2992 -22 -43 -63 0
-2993 11 0
-2993 49 0
-2993 65 0
2993 -11 -49 -65 0
-2994 11 0
-2994 43 0
-2994 77 0
2994 -11 -43 -77 0
-2995 8 0
-2995 63 0
-2995 65 0
2995 -8 -63 -65 0
-2990 2991 2992 2993 2994 2995 0
-2991 2990 2992 2993 2994 2995 0
-2992 2990 2991 2993 2994 2995 0
-2993 2990 2991 2992 2994 2995 0
-2994 2990 2991 2992 2993 2995 0
-2995 2990 2991 2992 2993 2994 0
-2996 28 0
-2996 37 0
-2996 66 0
2996 -28 -37 -66 0
-2997 20 0
-2997 44 0
-2997 61 0
2997 -20 -44 -61 0
-2998 11 0
-2998 44 0
-2998 75 0
2998 -11 -44 -75 0
-2999 8 0
-2999 61 0
-2999 66 0
2999 -8 -61 -66 0
-2996 2997 2998 2999 0
-2997 2996 2998 2999 0
-2998 2996 2997 2999 0
-2999 2996 2997 2998 0
-3000 21 0
-3000 37 0
-3000 66 0
3000 -21 -37 -66 0
-3001 20 0
-3001 44 0
-3001 62 0
3001 -20 -44 -62 0
-3002 20 0
-3002 37 0
-3002 73 0
3002 -20 -37 -73 0
-3003 8 0
-3003 62 0
-3003 66 0
3003 -8 -62 -66 0
-3004 1 0
-3004 37 0
-3004 66 0
3004 -1 -37 -66 0
-3000 3001 3002 3003 3004 0
-3001 3000 3002 3003 3004 0
-3002 3000 3001 3003 3004 0
-3003 3000 3001 3002 3004 0
-3004 3000 3001 3002 3003 0
-3005 29 0
-3005 37 0
-3005 66 0
3005 -29 -37 -66 0
-3006 20 0
-3006 44 0
-3006 63 0
3006 -20 -44 -63 0
-3007 11 0
-3007 49 0
-3007 66 0
3007 -11 -49 -66 0
-3008 8 0
-3008 63 0
-3008 66 0
3008 -8 -63 -66 0
-3005 3006 3007 3008 0
-3006 3005 3007 3008 0
-3007 3005 3006 3008 0
-3008 3005 3006 3007 0
-3009 28 0
-3009 37 0
-3009 67 0
3009 -28 -37 -67 0
-3010 21 0
-3010 44 0
-3010 61 0
3010 -21 -44 -61 0
-3011 8 0
-3011 61 0
-3011 67 0
3011 -8 -61 -67 0
-3009 3010 3011 0
-3010 3009 3011 0
-3011 3009 3010 0
-3012 21 0
-3012 44 0
-3012 62 0
3012 -21 -44 -62 0
-3013 21 0
-3013 37 0
-3013 73 0
3013 -21 -37 -73 0
-3014 21 0
-3014 37 0
-3014 67 0
3014 -21 -37 -67 0
-3015 11 0
-3015 44 0
-3015 76 0
3015 -11 -44 -76 0
-3016 8 0
-3016 62 0
-3016 67 0
3016 -8 -62 -67 0
-3017 1 0
-3017 37 0
-3017 67 0
3017 -1 -37 -67 0
-3012 3013 3014 3015 3016 3017 0
-3013 3012 3014 3015 3016 3017 0
-3014 3012 3013 3015 3016 3017 0
-3015 3012 3013 3014 3016 3017 0
-3016 3012 3013 3014 3015 3017 0
-3017 3012 3013 3014 3015 3016 0
-3018 29 0
-3018 37 0
-3018 67 0
3018 -29 -37 -67 0
-3019 21 0
-3019 44 0
-3019 63 0
3019 -21 -44 -63 0
-3020 11 0
-3020 49 0
-3020 67 0
3020 -11 -49 -67 0
-3021 8 0
-3021 63 0
-3021 67 0
3021 -8 -63 -67 0
-3018 3019 3020 3021 0
-3019 3018 3020 3021 0
-3020 3018 3019 3021 0
-3021 3018 3019 3020 0
-3022 28 0
-3022 44 0
-3022 55 0
3022 -28 -44 -55 0
-3023 28 0
-3023 37 0
-3023 68 0
3023 -28 -37 -68 0
-3024 22 0
-3024 44 0
-3024 61 0
3024 -22 -44 -61 0
-3025 8 0
-3025 61 0
-3025 68 0
3025 -8 -61 -68 0
-3022 3023 3024 3025 0
-3023 3022 3024 3025 0
-3024 3022 3023 3025 0
-3025 3022 3023 3024 0
-3026 22 0
-3026 44 0
-3026 62 0
3026 -22 -44 -62 0
-3027 22 0
-3027 37 0
-3027 73 0
3027 -22 -37 -73 0
-3028 21 0
-3028 44 0
-3028 55 0
3028 -21 -44 -55 0
-3029 21 0
-3029 37 0
-3029 68 0
3029 -21 -37 -68 0
-3030 11 0
-3030 47 0
-3030 73 0
3030 -11 -47 -73 0
-3031 8 0
-3031 62 0
-3031 68 0
3031 -8 -62 -68 0
-3032 8 0
-3032 55 0
-3032 73 0
3032 -8 -55 -73 0
-3033 1 0
-3033 44 0
-3033 55 0
3033 -1 -44 -55 0
-3034 1 0
-3034 37 0
-3034 68 0
3034 -1 -37 -68 0
-3026 3027 3028 3029 3030 3031 3032 3033 3034 0
-3027 3026 3028 3029 3030 3031 3032 3033 3034 0
-3028 3026 3027 3029 3030 3031 3032 3033 3034 0
-3029 3026 3027 3028 3030 3031 3032 3033 3034 0
-3030 3026 3027 3028 3029 3031 3032 3033 3034 0
-3031 3026 3027 3028 3029 3030 3032 3033 3034 0
-3032 3026 3027 3028 3029 3030 3031 3033 3034 0
-3033 3026 3027 3028 3029 3030 3031 3032 3034 0
-3034 3026 3027 3028 3029 3030 3031 3032 3033 0
-3035 29 0
-3035 44 0
-3035 55 0
3035 -29 -44 -55 0
-3036 29 0
-3036 37 0
-3036 68 0
3036 -29 -37 -68 0
-3037 22 0
-3037 44 0
-3037 63 0
3037 -22 -44 -63 0
-3038 11 0
-3038 49 0
-3038 68 0
3038 -11 -49 -68 0
-3039 11 0
-3039 44 0
-3039 77 0
3039 -11 -44 -77 0
-3040 8 0
-3040 63 0
-3040 68 0
3040 -8 -63 -68 0
-3035 3036 3037 3038 3039 3040 0
-3036 3035 3037 3038 3039 3040 0
-3037 3035 3036 3038 3039 3040 0
-3038 3035 3036 3037 3039 3040 0
-3039 3035 3036 3037 3038 3040 0
-3040 3035 3036 3037 3038 3039 0
-3041 28 0
-3041 37 0
-3041 69 0
3041 -28 -37 -69 0
-3042 20 0
-3042 45 0
-3042 61 0
3042 -20 -45 -61 0
-3043 14 0
-3043 37 0
-3043 75 0
3043 -14 -37 -75 0
-3044 11 0
-3044 45 0
-3044 75 0
3044 -11 -45 -75 0
-3045 8 0
-3045 61 0
-3045 69 0
3045 -8 -61 -69 0
-3046 8 0
-3046 52 0
-3046 75 0
3046 -8 -52 -75 0
-3041 3042 3043 3044 3045 3046 0
-3042 3041 3043 3044 3045 3046 0
-3043 3041 3042 3044 3045 3046 0
-3044 3041 3042 3043 3045 3046 0
-3045 3041 3042 3043 3044 3046 0
-3046 3041 3042 3043 3044 3045 0
-3047 21 0
-3047 37 0
-3047 69 0
3047 -21 -37 -69 0
-3048 20 0
-3048 45 0
-3048 62 0
3048 -20 -45 -62 0
-3049 8 0
-3049 62 0
-3049 69 0
3049 -8 -62 -69 0
-3050 1 0
-3050 37 0
-3050 69 0
3050 -1 -37 -69 0
-3047 3048 3049 3050 0
-3048 3047 3049 3050 0
-3049 3047 3048 3050 0
-3050 3047 3048 3049 0
-3051 29 0
-3051 37 0
-3051 69 0
3051 -29 -37 -69 0
-3052 20 0
-3052 49 0
-3052 52 0
3052 -20 -49 -52 0
-3053 20 0
-3053 45 0
-3053 63 0
3053 -20 -45 -63 0
-3054 20 0
-3054 37 0
-3054 74 0
3054 -20 -37 -74 0
-3055 11 0
-3055 49 0
-3055 69 0
3055 -11 -49 -69 0
-3056 8 0
-3056 63 0
-3056 69 0
3056 -8 -63 -69 0
-3051 3052 3053 3054 3055 3056 0
-3052 3051 3053 3054 3055 3056 0
-3053 3051 3052 3054 3055 3056 0
-3054 3051 3052 3053 3055 3056 0
-3055 3051 3052 3053 3054 3056 0
-3056 3051 3052 3053 3054 3055 0
-3057 28 0
-3057 37 0
-3057 70 0
3057 -28 -37 -70 0
-3058 21 0
-3058 45 0
-3058 61 0
3058 -21 -45 -61 0
-3059 8 0
-3059 61 0
-3059 70 0
3059 -8 -61 -70 0
-3057 3058 3059 0
-3058 3057 3059 0
-3059 3057 3058 0
-3060 21 0
-3060 45 0
-3060 62 0
3060 -21 -45 -62 0
-3061 21 0
-3061 37 0
-3061 70 0
3061 -21 -37 -70 0
-3062 14 0
-3062 37 0
-3062 76 0
3062 -14 -37 -76 0
-3063 11 0
-3063 45 0
-3063 76 0
3063 -11 -45 -76 0
-3064 8 0
-3064 62 0
-3064 70 0
3064 -8 -62 -70 0
-3065 8 0
-3065 52 0
-3065 76 0
3065 -8 -52 -76 0
-3066 1 0
-3066 37 0
-3066 70 0
3066 -1 -37 -70 0
-3060 3061 3062 3063 3064 3065 3066 0
-3061 3060 3062 3063 3064 3065 3066 0
-3062 3060 3061 3063 3064 3065 3066 0
-3063 3060 3061 3062 3064 3065 3066 0
-3064 3060 3061 3062 3063 3065 3066 0
-3065 3060 3061 3062 3063 3064 3066 0
-3066 3060 3061 3062 3063 3064 3065 0
-3067 29 0
-3067 37 0
-3067 70 0
3067 -29 -37 -70 0
-3068 21 0
-3068 49 0
-3068 52 0
3068 -21 -49 -52 0
-3069 21 0
-3069 45 0
-3069 63 0
3069 -21 -45 -63 0
-3070 21 0
-3070 37 0
-3070 74 0
3070 -21 -37 -74 0
-3071 11 0
-3071 49 0
-3071 70 0
3071 -11 -49 -70 0
-3072 8 0
-3072 63 0
-3072 70 0
3072 -8 -63 -70 0
-3067 3068 3069 3070 3071 3072 0
-3068 3067 3069 3070 3071 3072 0
-3069 3067 3068 3070 3071 3072 0
-3070 3067 3068 3069 3071 3072 0
-3071 3067 3068 3069 3070 3072 0
-3072 3067 3068 3069 3070 3071 0
-3073 28 0
-3073 47 0
-3073 52 0
3073 -28 -47 -52 0
-3074 28 0
-3074 45 0
-3074 55 0
3074 -28 -45 -55 0
-3075 28 0
-3075 37 0
-3075 71 0
3075 -28 -37 -71 0
-3076 22 0
-3076 45 0
-3076 61 0
3076 -22 -45 -61 0
-3077 14 0
-3077 47 0
-3077 61 0
3077 -14 -47 -61 0
-3078 8 0
-3078 61 0
-3078 71 0
3078 -8 -61 -71 0
-3073 3074 3075 3076 3077 3078 0
-3074 3073 3075 3076 3077 3078 0
-3075 3073 3074 3076 3077 3078 0
-3076 3073 3074 3075 3077 3078 0
-3077 3073 3074 3075 3076 3078 0
-3078 3073 3074 3075 3076 3077 0
-3079 22 0
-3079 45 0
-3079 62 0
3079 -22 -45 -62 0
-3080 21 0
-3080 47 0
-3080 52 0
3080 -21 -47 -52 0
-3081 21 0
-3081 45 0
-3081 55 0
3081 -21 -45 -55 0
-3082 21 0
-3082 37 0
-3082 71 0
3082 -21 -37 -71 0
-3083 14 0
-3083 47 0
-3083 62 0
3083 -14 -47 -62 0
-3084 8 0
-3084 62 0
-3084 71 0
3084 -8 -62 -71 0
-3085 1 0
-3085 47 0
-3085 52 0
3085 -1 -47 -52 0
-3086 1 0
-3086 45 0
-3086 55 0
3086 -1 -45 -55 0
-3087 1 0
-3087 37 0
-3087 71 0
3087 -1 -37 -71 0
-3079 3080 3081 3082 3083 3084 3085 3086 3087 0
-3080 3079 3081 3082 3083 3084 3085 3086 3087 0
-3081 3079 3080 3082 3083 3084 3085 3086 3087 0
-3082 3079 3080 3081 3083 3084 3085 3086 3087 0
-3083 3079 3080 3081 3082 3084 3085 3086 3087 0
-3084 3079 3080 3081 3082 3083 3085 3086 3087 0
-3085 3079 3080 3081 3082 3083 3084 3086 3087 0
-3086 3079 3080 3081 3082 3083 3084 3085 3087 0
-3087 3079 3080 3081 3082 3083 3084 3085 3086 0
3088 0
-3089 29 0
-3089 47 0
-3089 52 0
3089 -29 -47 -52 0
-3090 29 0
-3090 45 0
-3090 55 0
3090 -29 -45 -55 0
-3091 29 0
-3091 37 0
-3091 71 0
3091 -29 -37 -71 0
-3092 22 0
-3092 49 0
-3092 52 0
3092 -22 -49 -52 0
-3093 22 0
-3093 45 0
-3093 63 0
3093 -22 -45 -63 0
-3094 22 0
-3094 37 0
-3094 74 0
3094 -22 -37 -74 0
-3095 14 0
-3095 49 0
-3095 55 0
3095 -14 -49 -55 0
-3096 14 0
-3096 47 0
-3096 63 0
3096 -14 -47 -63 0
-3097 14 0
-3097 37 0
-3097 77 0
3097 -14 -37 -77 0
-3098 11 0
-3098 49 0
-3098 71 0
3098 -11 -49 -71 0
-3099 11 0
-3099 47 0
-3099 74 0
3099 -11 -47 -74 0
-3100 11 0
-3100 45 0
-3100 77 0
3100 -11 -45 -77 0
-3101 8 0
-3101 63 0
-3101 71 0
3101 -8 -63 -71 0
-3102 8 0
-3102 55 0
-3102 74 0
3102 -8 -55 -74 0
-3103 8 0
-3103 52 0
-3103 77 0
3103 -8 -52 -77 0
-3088 3089 3090 3091 3092 3093 3094 3095 3096 3097 3098 3099 3100 3101 3102 3103 0
-3089 3088 3090 3091 3092 3093 3094 3095 3096 3097 3098 3099 3100 3101 3102 3103 0
-3090 3088 3089 3091 3092 3093 3094 3095 3096 3097 3098 3099 3100 3101 3102 3103 0
-3091 3088 3089 3090 3092 3093 3094 3095 3096 3097 3098 3099 3100 3101 3102 3103 0
-3092 3088 3089 3090 3091 3093 3094 3095 3096 3097 3098 3099 3100 3101 3102 3103 0
-3093 3088 3089 3090 3091 3092 3094 3095 3096 3097 3098 3099 3100 3101 3102 3103 0
-3094 3088 3089 3090 3091 3092 3093 3095 3096 3097 3098 3099 3100 3101 3102 3103 0
-3095 3088 3089 3090 3091 3092 3093 3094 3096 3097 3098 3099 3100 3101 3102 3103 0
-3096 3088 3089 3090 3091 3092 3093 3094 3095 3097 3098 3099 3100 3101 3102 3103 0
-3097 3088 3089 3090 3091 3092 3093 3094 3095 3096 3098 3099 3100 3101 3102 3103 0
-3098 3088 3089 3090 3091 3092 3093 3094 3095 3096 3097 3099 3100 3101 3102 3103 0
-3099 3088 3089 3090 3091 3092 3093 3094 3095 3096 3097 3098 3100 3101 3102 3103 0
-3100 3088 3089 3090 3091 3092 3093 3094 3095 3096 3097 3098 3099 3101 3102 3103 0
-3101 3088 3089 3090 3091 3092 3093 3094 3095 3096 3097 3098 3099 3100 3102 3103 0
-3102 3088 3089 3090 3091 3092 3093 3094 3095 3096 3097 3098 3099 3100 3101 3103 0
-3103 3088 3089 3090 3091 3092 3093 3094 3095 3096 3097 3098 3099 3100 3101 3102 0
-3104 41 0
-3104 59 0
3104 -41 -59 0
-3105 33 0
-3105 73 0
3105 -33 -73 0
-3106 4 0
-3106 41 0
-3106 51 0
-3106 59 0
3106 -4 -41 -51 -59 0
-3107 4 0
-3107 33 0
-3107 51 0
-3107 73 0
3107 -4 -33 -51 -73 0
-3104 3105 3106 3107 0
-3105 3104 3106 3107 0
-3106 3104 3105 3107 0
-3107 3104 3105 3106 0
-3108 41 0
-3108 54 0
3108 -41 -54 0
-3109 33 0
-3109 67 0
3109 -33 -67 0
-3110 4 0
-3110 41 0
-3110 51 0
-3110 54 0
3110 -4 -41 -51 -54 0
-3111 4 0
-3111 33 0
-3111 51 0
-3111 67 0
3111 -4 -33 -51 -67 0
-3108 3109 3110 3111 0
-3109 3108 3110 3111 0
-3110 3108 3109 3111 0
-3111 3108 3109 3110 0
3112 0
-3113 1 0
-3113 5 0
3113 -1 -5 0
-3112 3113 0
-3113 3112 0
3114 0
-3115 4 0
-3115 51 0
3115 -4 -51 0
-3114 3115 0
-3115 3114 0
-3116 21 0
-3116 38 0
-3116 59 0
3116 -21 -38 -59 0
-3117 21 0
-3117 38 0
-3117 54 0
3117 -21 -38 -54 0
-3118 21 0
-3118 30 0
-3118 59 0
3118 -21 -30 -59 0
-3119 21 0
-3119 30 0
-3119 54 0
3119 -21 -30 -54 0
-3120 1 0
3120 -1 0
-3121 1 0
-3121 38 0
-3121 54 0
3121 -1 -38 -54 0
-3122 1 0
-3122 30 0
-3122 54 0
3122 -1 -30 -54 0
-3116 3117 3118 3119 3120 3121 3122 0
-3117 3116 3118 3119 3120 3121 3122 0
-3118 3116 3117 3119 3120 3121 3122 0
-3119 3116 3117 3118 3120 3121 3122 0
-3120 3116 3117 3118 3119 3121 3122 0
-3121 3116 3117 3118 3119 3120 3122 0
-3122 3116 3117 3118 3119 3120 3121 0
-3123 21 0
-3123 38 0
-3123 73 0
3123 -21 -38 -73 0
-3124 21 0
-3124 38 0
-3124 67 0
3124 -21 -38 -67 0
-3125 21 0
-3125 30 0
-3125 73 0
3125 -21 -30 -73 0
-3126 21 0
-3126 30 0
-3126 67 0
3126 -21 -30 -67 0
-3127 1 0
3127 -1 0
-3128 1 0
-3128 38 0
-3128 67 0
3128 -1 -38 -67 0
-3129 1 0
-3129 30 0
-3129 67 0
3129 -1 -30 -67 0
-3123 3124 3125 3126 3127 3128 3129 0
-3124 3123 3125 3126 3127 3128 3129 0
-3125 3123 3124 3126 3127 3128 3129 0
-3126 3123 3124 3125 3127 3128 3129 0
-3127 3123 3124 3125 3126 3128 3129 0
-3128 3123 3124 3125 3126 3127 3129 0
-3129 3123 3124 3125 3126 3127 3128 0
3130 0
-3131 3 0
-3131 38 0
3131 -3 -38 0
-3132 3 0
-3132 30 0
3132 -3 -30 0
-3130 3131 3132 0
-3131 3130 3132 0
-3132 3130 3131 0
3133 0
-3134 2 0
-3134 21 0
-3134 59 0
3134 -2 -21 -59 0
-3135 2 0
-3135 21 0
-3135 54 0
3135 -2 -21 -54 0
-3136 1 0
-3136 2 0
-3136 54 0
3136 -1 -2 -54 0
-3133 3134 3135 3136 0
-3134 3133 3135 3136 0
-3135 3133 3134 3136 0
-3136 3133 3134 3135 0
3137 0
-3138 54 0
-3138 78 0
3138 -54 -78 0
-3137 3138 0
-3138 3137 0
3139 0
-3140 59 0
-3140 79 0
3140 -59 -79 0
-3139 3140 0
-3140 3139 0
59 0
30 38 24 0
30 38 -24 0
30 65 38 0
30 -65 38 0
30 -65 -38 0
30 71 -16 0
30 -71 16 0
30 -71 -16 0
41 67 73 0
-41 67 73 0
-64 -35 43 0
-69 -35 45 0
-71 -35 45 0
-37 43 -24 0
67 73 37 0
67 73 -37 0
-70 -37 62 0
30 38 18 0
30 38 -18 0
30 -38 -18 0
35 -43 -18 0
21 -30 -1 0
-21 30 -1 0
21 67 -54 0
68 -22 -60 0
-30 0
