p cnf 543 2418
-437 1 0
-437 121 0
-438 2 0
-438 124 0
-439 3 0
-439 127 0
-440 4 0
-440 130 0
-441 5 0
-441 133 0
437 438 439 440 441 0
-443 1 0
-443 122 0
-444 2 0
-444 125 0
-445 3 0
-445 128 0
-446 4 0
-446 131 0
-447 5 0
-447 134 0
443 444 445 446 447 0
-449 1 0
-449 123 0
-450 2 0
-450 126 0
-451 3 0
-451 129 0
-452 4 0
-452 132 0
-453 5 0
-453 135 0
449 450 451 452 453 0
-454 1 0
-454 121 0
-456 6 0
-456 136 0
-457 7 0
-457 139 0
-458 8 0
-458 142 0
-459 9 0
-459 145 0
454 456 457 458 459 0
-460 1 0
-460 122 0
-462 6 0
-462 137 0
-463 7 0
-463 140 0
-464 8 0
-464 143 0
-465 9 0
-465 146 0
460 462 463 464 465 0
-466 1 0
-466 123 0
-468 6 0
-468 138 0
-469 7 0
-469 141 0
-470 8 0
-470 144 0
-471 9 0
-471 147 0
466 468 469 470 471 0
-472 2 0
-472 124 0
-473 6 0
-473 136 0
-475 10 0
-475 148 0
-476 11 0
-476 151 0
-477 12 0
-477 154 0
472 473 475 476 477 0
-478 2 0
-478 125 0
-479 6 0
-479 137 0
-481 10 0
-481 149 0
-482 11 0
-482 152 0
-483 12 0
-483 155 0
478 479 481 482 483 0
-484 2 0
-484 126 0
-485 6 0
-485 138 0
-487 10 0
-487 150 0
-488 11 0
-488 153 0
-489 12 0
-489 156 0
484 485 487 488 489 0
-490 3 0
-490 127 0
-491 7 0
-491 139 0
-492 10 0
-492 148 0
-494 13 0
-494 157 0
-495 14 0
-495 160 0
490 491 492 494 495 0
-496 3 0
-496 128 0
-497 7 0
-497 140 0
-498 10 0
-498 149 0
-500 13 0
-500 158 0
-501 14 0
-501 161 0
496 497 498 500 501 0
-502 3 0
-502 129 0
-503 7 0
-503 141 0
-504 10 0
-504 150 0
-506 13 0
-506 159 0
-507 14 0
-507 162 0
502 503 504 506 507 0
-508 4 0
-508 130 0
-509 8 0
-509 142 0
-510 11 0
-510 151 0
-511 13 0
-511 157 0
-513 15 0
-513 163 0
508 509 510 511 513 0
-514 4 0
-514 131 0
-515 8 0
-515 143 0
-516 11 0
-516 152 0
-517 13 0
-517 158 0
-519 15 0
-519 164 0
514 515 516 517 519 0
-520 4 0
-520 132 0
-521 8 0
-521 144 0
-522 11 0
-522 153 0
-523 13 0
-523 159 0
-525 15 0
-525 165 0
520 521 522 523 525 0
-526 5 0
-526 133 0
-527 9 0
-527 145 0
-528 12 0
-528 154 0
-529 14 0
-529 160 0
-530 15 0
-530 163 0
526 527 528 529 530 0
-532 5 0
-532 134 0
-533 9 0
-533 146 0
-534 12 0
-534 155 0
-535 14 0
-535 161 0
-536 15 0
-536 164 0
532 533 534 535 536 0
-538 5 0
-538 135 0
-539 9 0
-539 147 0
-540 12 0
-540 156 0
-541 14 0
-541 162 0
-542 15 0
-542 165 0
538 539 540 541 542 0
-16 120 0
-16 424 0
-16 427 0
-16 115 0
-16 340 0
-16 343 0
-16 119 0
-16 407 0
-16 413 0
-16 116 0
-16 356 0
-16 362 0
-16 118 0
-16 390 0
-16 399 0
-16 117 0
-16 375 0
-16 378 0
-17 120 0
-17 424 0
-17 427 0
-17 115 0
-17 340 0
-17 343 0
-17 119 0
-17 408 0
-17 414 0
-17 116 0
-17 357 0
-17 363 0
-17 118 0
-17 389 0
-17 398 0
-17 117 0
-17 374 0
-17 377 0
-18 120 0
-18 425 0
-18 428 0
-18 115 0
-18 341 0
-18 344 0
-18 119 0
-18 406 0
-18 412 0
-18 116 0
-18 355 0
-18 361 0
-18 118 0
-18 390 0
-18 399 0
-18 117 0
-18 375 0
-18 378 0
-19 120 0
-19 425 0
-19 428 0
-19 115 0
-19 341 0
-19 344 0
-19 119 0
-19 408 0
-19 414 0
-19 116 0
-19 357 0
-19 363 0
-19 118 0
-19 388 0
-19 397 0
-19 117 0
-19 373 0
-19 376 0
-20 120 0
-20 426 0
-20 429 0
-20 115 0
-20 342 0
-20 345 0
-20 119 0
-20 406 0
-20 412 0
-20 116 0
-20 355 0
-20 361 0
-20 118 0
-20 389 0
-20 398 0
-20 117 0
-20 374 0
-20 377 0
-21 120 0
-21 426 0
-21 429 0
-21 115 0
-21 342 0
-21 345 0
-21 119 0
-21 407 0
-21 413 0
-21 116 0
-21 356 0
-21 362 0
-21 118 0
-21 388 0
-21 397 0
-21 117 0
-21 373 0
-21 376 0
-1 16 17 18 19 20 21 0
-22 120 0
-22 421 0
-22 427 0
-22 112 0
-22 286 0
-22 289 0
-22 119 0
-22 404 0
-22 413 0
-22 113 0
-22 302 0
-22 308 0
-22 118 0
-22 387 0
-22 399 0
-22 114 0
-22 321 0
-22 324 0
-23 120 0
-23 421 0
-23 427 0
-23 112 0
-23 286 0
-23 289 0
-23 119 0
-23 405 0
-23 414 0
-23 113 0
-23 303 0
-23 309 0
-23 118 0
-23 386 0
-23 398 0
-23 114 0
-23 320 0
-23 323 0
-24 120 0
-24 422 0
-24 428 0
-24 112 0
-24 287 0
-24 290 0
-24 119 0
-24 403 0
-24 412 0
-24 113 0
-24 301 0
-24 307 0
-24 118 0
-24 387 0
-24 399 0
-24 114 0
-24 321 0
-24 324 0
-25 120 0
-25 422 0
-25 428 0
-25 112 0
-25 287 0
-25 290 0
-25 119 0
-25 405 0
-25 414 0
-25 113 0
-25 303 0
-25 309 0
-25 118 0
-25 385 0
-25 397 0
-25 114 0
-25 319 0
-25 322 0
-26 120 0
-26 423 0
-26 429 0
-26 112 0
-26 288 0
-26 291 0
-26 119 0
-26 403 0
-26 412 0
-26 113 0
-26 301 0
-26 307 0
-26 118 0
-26 386 0
-26 398 0
-26 114 0
-26 320 0
-26 323 0
-27 120 0
-27 423 0
-27 429 0
-27 112 0
-27 288 0
-27 291 0
-27 119 0
-27 404 0
-27 413 0
-27 113 0
-27 302 0
-27 308 0
-27 118 0
-27 385 0
-27 397 0
-27 114 0
-27 319 0
-27 322 0
-2 22 23 24 25 26 27 0
-28 120 0
-28 421 0
-28 424 0
-28 111 0
-28 268 0
-28 271 0
-28 117 0
-28 368 0
-28 377 0
-28 113 0
-28 299 0
-28 308 0
-28 116 0
-28 351 0
-28 363 0
-28 114 0
-28 318 0
-28 324 0
-29 120 0
-29 421 0
-29 424 0
-29 111 0
-29 268 0
-29 271 0
-29 117 0
-29 369 0
-29 378 0
-29 113 0
-29 300 0
-29 309 0
-29 116 0
-29 350 0
-29 362 0
-29 114 0
-29 317 0
-29 323 0
-30 120 0
-30 422 0
-30 425 0
-30 111 0
-30 269 0
-30 272 0
-30 117 0
-30 367 0
-30 376 0
-30 113 0
-30 298 0
-30 307 0
-30 116 0
-30 351 0
-30 363 0
-30 114 0
-30 318 0
-30 324 0
-31 120 0
-31 422 0
-31 425 0
-31 111 0
-31 269 0
-31 272 0
-31 117 0
-31 369 0
-31 378 0
-31 113 0
-31 300 0
-31 309 0
-31 116 0
-31 349 0
-31 361 0
-31 114 0
-31 316 0
-31 322 0
-32 120 0
-32 423 0
-32 426 0
-32 111 0
-32 270 0
-32 273 0
-32 117 0
-32 367 0
-32 376 0
-32 113 0
-32 298 0
-32 307 0
-32 116 0
-32 350 0
-32 362 0
-32 114 0
-32 317 0
-32 323 0
-33 120 0
-33 423 0
-33 426 0
-33 111 0
-33 270 0
-33 273 0
-33 117 0
-33 368 0
-33 377 0
-33 113 0
-33 299 0
-33 308 0
-33 116 0
-33 349 0
-33 361 0
-33 114 0
-33 316 0
-33 322 0
-3 28 29 30 31 32 33 0
-34 119 0
-34 403 0
-34 406 0
-34 111 0
-34 265 0
-34 271 0
-34 117 0
-34 368 0
-34 374 0
-34 112 0
-34 281 0
-34 290 0
-34 115 0
-34 333 0
-34 345 0
-34 114 0
-34 318 0
-34 321 0
-35 119 0
-35 403 0
-35 406 0
-35 111 0
-35 265 0
-35 271 0
-35 117 0
-35 369 0
-35 375 0
-35 112 0
-35 282 0
-35 291 0
-35 115 0
-35 332 0
-35 344 0
-35 114 0
-35 317 0
-35 320 0
-36 119 0
-36 404 0
-36 407 0
-36 111 0
-36 266 0
-36 272 0
-36 117 0
-36 367 0
-36 373 0
-36 112 0
-36 280 0
-36 289 0
-36 115 0
-36 333 0
-36 345 0
-36 114 0
-36 318 0
-36 321 0
-37 119 0
-37 404 0
-37 407 0
-37 111 0
-37 266 0
-37 272 0
-37 117 0
-37 369 0
-37 375 0
-37 112 0
-37 282 0
-37 291 0
-37 115 0
-37 331 0
-37 343 0
-37 114 0
-37 316 0
-37 319 0
-38 119 0
-38 405 0
-38 408 0
-38 111 0
-38 267 0
-38 273 0
-38 117 0
-38 367 0
-38 373 0
-38 112 0
-38 280 0
-38 289 0
-38 115 0
-38 332 0
-38 344 0
-38 114 0
-38 317 0
-38 320 0
-39 119 0
-39 405 0
-39 408 0
-39 111 0
-39 267 0
-39 273 0
-39 117 0
-39 368 0
-39 374 0
-39 112 0
-39 281 0
-39 290 0
-39 115 0
-39 331 0
-39 343 0
-39 114 0
-39 316 0
-39 319 0
-4 34 35 36 37 38 39 0
-40 118 0
-40 385 0
-40 388 0
-40 111 0
-40 265 0
-40 268 0
-40 116 0
-40 350 0
-40 356 0
-40 112 0
-40 281 0
-40 287 0
-40 115 0
-40 333 0
-40 342 0
-40 113 0
-40 300 0
-40 303 0
-41 118 0
-41 385 0
-41 388 0
-41 111 0
-41 265 0
-41 268 0
-41 116 0
-41 351 0
-41 357 0
-41 112 0
-41 282 0
-41 288 0
-41 115 0
-41 332 0
-41 341 0
-41 113 0
-41 299 0
-41 302 0
-42 118 0
-42 386 0
-42 389 0
-42 111 0
-42 266 0
-42 269 0
-42 116 0
-42 349 0
-42 355 0
-42 112 0
-42 280 0
-42 286 0
-42 115 0
-42 333 0
-42 342 0
-42 113 0
-42 300 0
-42 303 0
-43 118 0
-43 386 0
-43 389 0
-43 111 0
-43 266 0
-43 269 0
-43 116 0
-43 351 0
-43 357 0
-43 112 0
-43 282 0
-43 288 0
-43 115 0
-43 331 0
-43 340 0
-43 113 0
-43 298 0
-43 301 0
-44 118 0
-44 387 0
-44 390 0
-44 111 0
-44 267 0
-44 270 0
-44 116 0
-44 349 0
-44 355 0
-44 112 0
-44 280 0
-44 286 0
-44 115 0
-44 332 0
-44 341 0
-44 113 0
-44 299 0
-44 302 0
-45 118 0
-45 387 0
-45 390 0
-45 111 0
-45 267 0
-45 270 0
-45 116 0
-45 350 0
-45 356 0
-45 112 0
-45 281 0
-45 287 0
-45 115 0
-45 331 0
-45 340 0
-45 113 0
-45 298 0
-45 301 0
-5 40 41 42 43 44 45 0
-46 120 0
-46 418 0
-46 427 0
-46 108 0
-46 214 0
-46 217 0
-46 119 0
-46 401 0
-46 413 0
-46 109 0
-46 230 0
-46 236 0
-46 118 0
-46 384 0
-46 399 0
-46 110 0
-46 249 0
-46 252 0
-47 120 0
-47 418 0
-47 427 0
-47 108 0
-47 214 0
-47 217 0
-47 119 0
-47 402 0
-47 414 0
-47 109 0
-47 231 0
-47 237 0
-47 118 0
-47 383 0
-47 398 0
-47 110 0
-47 248 0
-47 251 0
-48 120 0
-48 419 0
-48 428 0
-48 108 0
-48 215 0
-48 218 0
-48 119 0
-48 400 0
-48 412 0
-48 109 0
-48 229 0
-48 235 0
-48 118 0
-48 384 0
-48 399 0
-48 110 0
-48 249 0
-48 252 0
-49 120 0
-49 419 0
-49 428 0
-49 108 0
-49 215 0
-49 218 0
-49 119 0
-49 402 0
-49 414 0
-49 109 0
-49 231 0
-49 237 0
-49 118 0
-49 382 0
-49 397 0
-49 110 0
-49 247 0
-49 250 0
-50 120 0
-50 420 0
-50 429 0
-50 108 0
-50 216 0
-50 219 0
-50 119 0
-50 400 0
-50 412 0
-50 109 0
-50 229 0
-50 235 0
-50 118 0
-50 383 0
-50 398 0
-50 110 0
-50 248 0
-50 251 0
-51 120 0
-51 420 0
-51 429 0
-51 108 0
-51 216 0
-51 219 0
-51 119 0
-51 401 0
-51 413 0
-51 109 0
-51 230 0
-51 236 0
-51 118 0
-51 382 0
-51 397 0
-51 110 0
-51 247 0
-51 250 0
-6 46 47 48 49 50 51 0
-52 120 0
-52 418 0
-52 424 0
-52 107 0
-52 196 0
-52 199 0
-52 117 0
-52 365 0
-52 377 0
-52 109 0
-52 227 0
-52 236 0
-52 116 0
-52 348 0
-52 363 0
-52 110 0
-52 246 0
-52 252 0
-53 120 0
-53 418 0
-53 424 0
-53 107 0
-53 196 0
-53 199 0
-53 117 0
-53 366 0
-53 378 0
-53 109 0
-53 228 0
-53 237 0
-53 116 0
-53 347 0
-53 362 0
-53 110 0
-53 245 0
-53 251 0
-54 120 0
-54 419 0
-54 425 0
-54 107 0
-54 197 0
-54 200 0
-54 117 0
-54 364 0
-54 376 0
-54 109 0
-54 226 0
-54 235 0
-54 116 0
-54 348 0
-54 363 0
-54 110 0
-54 246 0
-54 252 0
-55 120 0
-55 419 0
-55 425 0
-55 107 0
-55 197 0
-55 200 0
-55 117 0
-55 366 0
-55 378 0
-55 109 0
-55 228 0
-55 237 0
-55 116 0
-55 346 0
-55 361 0
-55 110 0
-55 244 0
-55 250 0
-56 120 0
-56 420 0
-56 426 0
-56 107 0
-56 198 0
-56 201 0
-56 117 0
-56 364 0
-56 376 0
-56 109 0
-56 226 0
-56 235 0
-56 116 0
-56 347 0
-56 362 0
-56 110 0
-56 245 0
-56 251 0
-57 120 0
-57 420 0
-57 426 0
-57 107 0
-57 198 0
-57 201 0
-57 117 0
-57 365 0
-57 377 0
-57 109 0
-57 227 0
-57 236 0
-57 116 0
-57 346 0
-57 361 0
-57 110 0
-57 244 0
-57 250 0
-7 52 53 54 55 56 57 0
-58 119 0
-58 400 0
-58 406 0
-58 107 0
-58 193 0
-58 199 0
-58 117 0
-58 365 0
-58 374 0
-58 108 0
-58 209 0
-58 218 0
-58 115 0
-58 330 0
-58 345 0
-58 110 0
-58 246 0
-58 249 0
-59 119 0
-59 400 0
-59 406 0
-59 107 0
-59 193 0
-59 199 0
-59 117 0
-59 366 0
-59 375 0
-59 108 0
-59 210 0
-59 219 0
-59 115 0
-59 329 0
-59 344 0
-59 110 0
-59 245 0
-59 248 0
-60 119 0
-60 401 0
-60 407 0
-60 107 0
-60 194 0
-60 200 0
-60 117 0
-60 364 0
-60 373 0
-60 108 0
-60 208 0
-60 217 0
-60 115 0
-60 330 0
-60 345 0
-60 110 0
-60 246 0
-60 249 0
-61 119 0
-61 401 0
-61 407 0
-61 107 0
-61 194 0
-61 200 0
-61 117 0
-61 366 0
-61 375 0
-61 108 0
-61 210 0
-61 219 0
-61 115 0
-61 328 0
-61 343 0
-61 110 0
-61 244 0
-61 247 0
-62 119 0
-62 402 0
-62 408 0
-62 107 0
-62 195 0
-62 201 0
-62 117 0
-62 364 0
-62 373 0
-62 108 0
-62 208 0
-62 217 0
-62 115 0
-62 329 0
-62 344 0
-62 110 0
-62 245 0
-62 248 0
-63 119 0
-63 402 0
-63 408 0
-63 107 0
-63 195 0
-63 201 0
-63 117 0
-63 365 0
-63 374 0
-63 108 0
-63 209 0
-63 218 0
-63 115 0
-63 328 0
-63 343 0
-63 110 0
-63 244 0
-63 247 0
-8 58 59 60 61 62 63 0
-64 118 0
-64 382 0
-64 388 0
-64 107 0
-64 193 0
-64 196 0
-64 116 0
-64 347 0
-64 356 0
-64 108 0
-64 209 0
-64 215 0
-64 115 0
-64 330 0
-64 342 0
-64 109 0
-64 228 0
-64 231 0
-65 118 0
-65 382 0
-65 388 0
-65 107 0
-65 193 0
-65 196 0
-65 116 0
-65 348 0
-65 357 0
-65 108 0
-65 210 0
-65 216 0
-65 115 0
-65 329 0
-65 341 0
-65 109 0
-65 227 0
-65 230 0
-66 118 0
-66 383 0
-66 389 0
-66 107 0
-66 194 0
-66 197 0
-66 116 0
-66 346 0
-66 355 0
-66 108 0
-66 208 0
-66 214 0
-66 115 0
-66 330 0
-66 342 0
-66 109 0
-66 228 0
-66 231 0
-67 118 0
-67 383 0
-67 389 0
-67 107 0
-67 194 0
-67 197 0
-67 116 0
-67 348 0
-67 357 0
-67 108 0
-67 210 0
-67 216 0
-67 115 0
-67 328 0
-67 340 0
-67 109 0
-67 226 0
-67 229 0
-68 118 0
-68 384 0
-68 390 0
-68 107 0
-68 195 0
-68 198 0
-68 116 0
-68 346 0
-68 355 0
-68 108 0
-68 208 0
-68 214 0
-68 115 0
-68 329 0
-68 341 0
-68 109 0
-68 227 0
-68 230 0
-69 118 0
-69 384 0
-69 390 0
-69 107 0
-69 195 0
-69 198 0
-69 116 0
-69 347 0
-69 356 0
-69 108 0
-69 209 0
-69 215 0
-69 115 0
-69 328 0
-69 340 0
-69 109 0
-69 226 0
-69 229 0
-9 64 65 66 67 68 69 0
-70 120 0
-70 418 0
-70 421 0
-70 106 0
-70 178 0
-70 181 0
-70 114 0
-70 311 0
-70 323 0
-70 109 0
-70 224 0
-70 236 0
-70 113 0
-70 294 0
-70 309 0
-70 110 0
-70 243 0
-70 252 0
-71 120 0
-71 418 0
-71 421 0
-71 106 0
-71 178 0
-71 181 0
-71 114 0
-71 312 0
-71 324 0
-71 109 0
-71 225 0
-71 237 0
-71 113 0
-71 293 0
-71 308 0
-71 110 0
-71 242 0
-71 251 0
-72 120 0
-72 419 0
-72 422 0
-72 106 0
-72 179 0
-72 182 0
-72 114 0
-72 310 0
-72 322 0
-72 109 0
-72 223 0
-72 235 0
-72 113 0
-72 294 0
-72 309 0
-72 110 0
-72 243 0
-72 252 0
-73 120 0
-73 419 0
-73 422 0
-73 106 0
-73 179 0
-73 182 0
-73 114 0
-73 312 0
-73 324 0
-73 109 0
-73 225 0
-73 237 0
-73 113 0
-73 292 0
-73 307 0
-73 110 0
-73 241 0
-73 250 0
-74 120 0
-74 420 0
-74 423 0
-74 106 0
-74 180 0
-74 183 0
-74 114 0
-74 310 0
-74 322 0
-74 109 0
-74 223 0
-74 235 0
-74 113 0
-74 293 0
-74 308 0
-74 110 0
-74 242 0
-74 251 0
-75 120 0
-75 420 0
-75 423 0
-75 106 0
-75 180 0
-75 183 0
-75 114 0
-75 311 0
-75 323 0
-75 109 0
-75 224 0
-75 236 0
-75 113 0
-75 292 0
-75 307 0
-75 110 0
-75 241 0
-75 250 0
-10 70 71 72 73 74 75 0
-76 119 0
-76 400 0
-76 403 0
-76 106 0
-76 175 0
-76 181 0
-76 114 0
-76 311 0
-76 320 0
-76 108 0
-76 206 0
-76 218 0
-76 112 0
-76 276 0
-76 291 0
-76 110 0
-76 243 0
-76 249 0
-77 119 0
-77 400 0
-77 403 0
-77 106 0
-77 175 0
-77 181 0
-77 114 0
-77 312 0
-77 321 0
-77 108 0
-77 207 0
-77 219 0
-77 112 0
-77 275 0
-77 290 0
-77 110 0
-77 242 0
-77 248 0
-78 119 0
-78 401 0
-78 404 0
-78 106 0
-78 176 0
-78 182 0
-78 114 0
-78 310 0
-78 319 0
-78 108 0
-78 205 0
-78 217 0
-78 112 0
-78 276 0
-78 291 0
-78 110 0
-78 243 0
-78 249 0
-79 119 0
-79 401 0
-79 404 0
-79 106 0
-79 176 0
-79 182 0
-79 114 0
-79 312 0
-79 321 0
-79 108 0
-79 207 0
-79 219 0
-79 112 0
-79 274 0
-79 289 0
-79 110 0
-79 241 0
-79 247 0
-80 119 0
-80 402 0
-80 405 0
-80 106 0
-80 177 0
-80 183 0
-80 114 0
-80 310 0
-80 319 0
-80 108 0
-80 205 0
-80 217 0
-80 112 0
-80 275 0
-80 290 0
-80 110 0
-80 242 0
-80 248 0
-81 119 0
-81 402 0
-81 405 0
-81 106 0
-81 177 0
-81 183 0
-81 114 0
-81 311 0
-81 320 0
-81 108 0
-81 206 0
-81 218 0
-81 112 0
-81 274 0
-81 289 0
-81 110 0
-81 241 0
-81 247 0
-11 76 77 78 79 80 81 0
-82 118 0
-82 382 0
-82 385 0
-82 106 0
-82 175 0
-82 178 0
-82 113 0
-82 293 0
-82 302 0
-82 108 0
-82 206 0
-82 215 0
-82 112 0
-82 276 0
-82 288 0
-82 109 0
-82 225 0
-82 231 0
-83 118 0
-83 382 0
-83 385 0
-83 106 0
-83 175 0
-83 178 0
-83 113 0
-83 294 0
-83 303 0
-83 108 0
-83 207 0
-83 216 0
-83 112 0
-83 275 0
-83 287 0
-83 109 0
-83 224 0
-83 230 0
-84 118 0
-84 383 0
-84 386 0
-84 106 0
-84 176 0
-84 179 0
-84 113 0
-84 292 0
-84 301 0
-84 108 0
-84 205 0
-84 214 0
-84 112 0
-84 276 0
-84 288 0
-84 109 0
-84 225 0
-84 231 0
-85 118 0
-85 383 0
-85 386 0
-85 106 0
-85 176 0
-85 179 0
-85 113 0
-85 294 0
-85 303 0
-85 108 0
-85 207 0
-85 216 0
-85 112 0
-85 274 0
-85 286 0
-85 109 0
-85 223 0
-85 229 0
-86 118 0
-86 384 0
-86 387 0
-86 106 0
-86 177 0
-86 180 0
-86 113 0
-86 292 0
-86 301 0
-86 108 0
-86 205 0
-86 214 0
-86 112 0
-86 275 0
-86 287 0
-86 109 0
-86 224 0
-86 230 0
-87 118 0
-87 384 0
-87 387 0
-87 106 0
-87 177 0
-87 180 0
-87 113 0
-87 293 0
-87 302 0
-87 108 0
-87 206 0
-87 215 0
-87 112 0
-87 274 0
-87 286 0
-87 109 0
-87 223 0
-87 229 0
-12 82 83 84 85 86 87 0
-88 117 0
-88 364 0
-88 367 0
-88 106 0
-88 172 0
-88 181 0
-88 114 0
-88 311 0
-88 317 0
-88 107 0
-88 188 0
-88 200 0
-88 111 0
-88 258 0
-88 273 0
-88 110 0
-88 243 0
-88 246 0
-89 117 0
-89 364 0
-89 367 0
-89 106 0
-89 172 0
-89 181 0
-89 114 0
-89 312 0
-89 318 0
-89 107 0
-89 189 0
-89 201 0
-89 111 0
-89 257 0
-89 272 0
-89 110 0
-89 242 0
-89 245 0
-90 117 0
-90 365 0
-90 368 0
-90 106 0
-90 173 0
-90 182 0
-90 114 0
-90 310 0
-90 316 0
-90 107 0
-90 187 0
-90 199 0
-90 111 0
-90 258 0
-90 273 0
-90 110 0
-90 243 0
-90 246 0
-91 117 0
-91 365 0
-91 368 0
-91 106 0
-91 173 0
-91 182 0
-91 114 0
-91 312 0
-91 318 0
-91 107 0
-91 189 0
-91 201 0
-91 111 0
-91 256 0
-91 271 0
-91 110 0
-91 241 0
-91 244 0
-92 117 0
-92 366 0
-92 369 0
-92 106 0
-92 174 0
-92 183 0
-92 114 0
-92 310 0
-92 316 0
-92 107 0
-92 187 0
-92 199 0
-92 111 0
-92 257 0
-92 272 0
-92 110 0
-92 242 0
-92 245 0
-93 117 0
-93 366 0
-93 369 0
-93 106 0
-93 174 0
-93 183 0
-93 114 0
-93 311 0
-93 317 0
-93 107 0
-93 188 0
-93 200 0
-93 111 0
-93 256 0
-93 271 0
-93 110 0
-93 241 0
-93 244 0
-13 88 89 90 91 92 93 0
-94 116 0
-94 346 0
-94 349 0
-94 106 0
-94 172 0
-94 178 0
-94 113 0
-94 293 0
-94 299 0
-94 107 0
-94 188 0
-94 197 0
-94 111 0
-94 258 0
-94 270 0
-94 109 0
-94 225 0
-94 228 0
-95 116 0
-95 346 0
-95 349 0
-95 106 0
-95 172 0
-95 178 0
-95 113 0
-95 294 0
-95 300 0
-95 107 0
-95 189 0
-95 198 0
-95 111 0
-95 257 0
-95 269 0
-95 109 0
-95 224 0
-95 227 0
-96 116 0
-96 347 0
-96 350 0
-96 106 0
-96 173 0
-96 179 0
-96 113 0
-96 292 0
-96 298 0
-96 107 0
-96 187 0
-96 196 0
-96 111 0
-96 258 0
-96 270 0
-96 109 0
-96 225 0
-96 228 0
-97 116 0
-97 347 0
-97 350 0
-97 106 0
-97 173 0
-97 179 0
-97 113 0
-97 294 0
-97 300 0
-97 107 0
-97 189 0
-97 198 0
-97 111 0
-97 256 0
-97 268 0
-97 109 0
-97 223 0
-97 226 0
-98 116 0
-98 348 0
-98 351 0
-98 106 0
-98 174 0
-98 180 0
-98 113 0
-98 292 0
-98 298 0
-98 107 0
-98 187 0
-98 196 0
-98 111 0
-98 257 0
-98 269 0
-98 109 0
-98 224 0
-98 227 0
-99 116 0
-99 348 0
-99 351 0
-99 106 0
-99 174 0
-99 180 0
-99 113 0
-99 293 0
-99 299 0
-99 107 0
-99 188 0
-99 197 0
-99 111 0
-99 256 0
-99 268 0
-99 109 0
-99 223 0
-99 226 0
-14 94 95 96 97 98 99 0
-100 115 0
-100 328 0
-100 331 0
-100 106 0
-100 172 0
-100 175 0
-100 112 0
-100 275 0
-100 281 0
-100 107 0
-100 188 0
-100 194 0
-100 111 0
-100 258 0
-100 267 0
-100 108 0
-100 207 0
-100 210 0
-101 115 0
-101 328 0
-101 331 0
-101 106 0
-101 172 0
-101 175 0
-101 112 0
-101 276 0
-101 282 0
-101 107 0
-101 189 0
-101 195 0
-101 111 0
-101 257 0
-101 266 0
-101 108 0
-101 206 0
-101 209 0
-102 115 0
-102 329 0
-102 332 0
-102 106 0
-102 173 0
-102 176 0
-102 112 0
-102 274 0
-102 280 0
-102 107 0
-102 187 0
-102 193 0
-102 111 0
-102 258 0
-102 267 0
-102 108 0
-102 207 0
-102 210 0
-103 115 0
-103 329 0
-103 332 0
-103 106 0
-103 173 0
-103 176 0
-103 112 0
-103 276 0
-103 282 0
-103 107 0
-103 189 0
-103 195 0
-103 111 0
-103 256 0
-103 265 0
-103 108 0
-103 205 0
-103 208 0
-104 115 0
-104 330 0
-104 333 0
-104 106 0
-104 174 0
-104 177 0
-104 112 0
-104 274 0
-104 280 0
-104 107 0
-104 187 0
-104 193 0
-104 111 0
-104 257 0
-104 266 0
-104 108 0
-104 206 0
-104 209 0
-105 115 0
-105 330 0
-105 333 0
-105 106 0
-105 174 0
-105 177 0
-105 112 0
-105 275 0
-105 281 0
-105 107 0
-105 188 0
-105 194 0
-105 111 0
-105 256 0
-105 265 0
-105 108 0
-105 205 0
-105 208 0
-15 100 101 102 103 104 105 0
-121 106 0
-122 106 0
-123 106 0
-106 -172 -173 0
-106 -172 -174 0
-106 -173 -174 0
-122 -172 0
-123 -172 0
-121 -173 0
-123 -173 0
-121 -174 0
-122 -174 0
-106 -175 -176 0
-106 -175 -177 0
-106 -176 -177 0
-122 -175 0
-123 -175 0
-121 -176 0
-123 -176 0
-121 -177 0
-122 -177 0
-106 -178 -179 0
-106 -178 -180 0
-106 -179 -180 0
-122 -178 0
-123 -178 0
-121 -179 0
-123 -179 0
-121 -180 0
-122 -180 0
-106 -181 -182 0
-106 -181 -183 0
-106 -182 -183 0
-122 -181 0
-123 -181 0
-121 -182 0
-123 -182 0
-121 -183 0
-122 -183 0
-124 107 0
-125 107 0
-126 107 0
-107 -187 -188 0
-107 -187 -189 0
-107 -188 -189 0
-125 -187 0
-126 -187 0
-124 -188 0
-126 -188 0
-124 -189 0
-125 -189 0
-107 -193 -194 0
-107 -193 -195 0
-107 -194 -195 0
-125 -193 0
-126 -193 0
-124 -194 0
-126 -194 0
-124 -195 0
-125 -195 0
-107 -196 -197 0
-107 -196 -198 0
-107 -197 -198 0
-125 -196 0
-126 -196 0
-124 -197 0
-126 -197 0
-124 -198 0
-125 -198 0
-107 -199 -200 0
-107 -199 -201 0
-107 -200 -201 0
-125 -199 0
-126 -199 0
-124 -200 0
-126 -200 0
-124 -201 0
-125 -201 0
-127 108 0
-128 108 0
-129 108 0
-108 -205 -206 0
-108 -205 -207 0
-108 -206 -207 0
-128 -205 0
-129 -205 0
-127 -206 0
-129 -206 0
-127 -207 0
-128 -207 0
-108 -208 -209 0
-108 -208 -210 0
-108 -209 -210 0
-128 -208 0
-129 -208 0
-127 -209 0
-129 -209 0
-127 -210 0
-128 -210 0
-108 -214 -215 0
-108 -214 -216 0
-108 -215 -216 0
-128 -214 0
-129 -214 0
-127 -215 0
-129 -215 0
-127 -216 0
-128 -216 0
-108 -217 -218 0
-108 -217 -219 0
-108 -218 -219 0
-128 -217 0
-129 -217 0
-127 -218 0
-129 -218 0
-127 -219 0
-128 -219 0
-130 109 0
-131 109 0
-132 109 0
-109 -223 -224 0
-109 -223 -225 0
-109 -224 -225 0
-131 -223 0
-132 -223 0
-130 -224 0
-132 -224 0
-130 -225 0
-131 -225 0
-109 -226 -227 0
-109 -226 -228 0
-109 -227 -228 0
-131 -226 0
-132 -226 0
-130 -227 0
-132 -227 0
-130 -228 0
-131 -228 0
-109 -229 -230 0
-109 -229 -231 0
-109 -230 -231 0
-131 -229 0
-132 -229 0
-130 -230 0
-132 -230 0
-130 -231 0
-131 -231 0
-109 -235 -236 0
-109 -235 -237 0
-109 -236 -237 0
-131 -235 0
-132 -235 0
-130 -236 0
-132 -236 0
-130 -237 0
-131 -237 0
-133 110 0
-134 110 0
-135 110 0
-110 -241 -242 0
-110 -241 -243 0
-110 -242 -243 0
-134 -241 0
-135 -241 0
-133 -242 0
-135 -242 0
-133 -243 0
-134 -243 0
-110 -244 -245 0
-110 -244 -246 0
-110 -245 -246 0
-134 -244 0
-135 -244 0
-133 -245 0
-135 -245 0
-133 -246 0
-134 -246 0
-110 -247 -248 0
-110 -247 -249 0
-110 -248 -249 0
-134 -247 0
-135 -247 0
-133 -248 0
-135 -248 0
-133 -249 0
-134 -249 0
-110 -250 -251 0
-110 -250 -252 0
-110 -251 -252 0
-134 -250 0
-135 -250 0
-133 -251 0
-135 -251 0
-133 -252 0
-134 -252 0
-136 111 0
-137 111 0
-138 111 0
-111 -256 -257 0
-111 -256 -258 0
-111 -257 -258 0
-137 -256 0
-138 -256 0
-136 -257 0
-138 -257 0
-136 -258 0
-137 -258 0
-111 -265 -266 0
-111 -265 -267 0
-111 -266 -267 0
-137 -265 0
-138 -265 0
-136 -266 0
-138 -266 0
-136 -267 0
-137 -267 0
-111 -268 -269 0
-111 -268 -270 0
-111 -269 -270 0
-137 -268 0
-138 -268 0
-136 -269 0
-138 -269 0
-136 -270 0
-137 -270 0
-111 -271 -272 0
-111 -271 -273 0
-111 -272 -273 0
-137 -271 0
-138 -271 0
-136 -272 0
-138 -272 0
-136 -273 0
-137 -273 0
-139 112 0
-140 112 0
-141 112 0
-112 -274 -275 0
-112 -274 -276 0
-112 -275 -276 0
-140 -274 0
-141 -274 0
-139 -275 0
-141 -275 0
-139 -276 0
-140 -276 0
-112 -280 -281 0
-112 -280 -282 0
-112 -281 -282 0
-140 -280 0
-141 -280 0
-139 -281 0
-141 -281 0
-139 -282 0
-140 -282 0
-112 -286 -287 0
-112 -286 -288 0
-112 -287 -288 0
-140 -286 0
-141 -286 0
-139 -287 0
-141 -287 0
-139 -288 0
-140 -288 0
-112 -289 -290 0
-112 -289 -291 0
-112 -290 -291 0
-140 -289 0
-141 -289 0
-139 -290 0
-141 -290 0
-139 -291 0
-140 -291 0
-142 113 0
-143 113 0
-144 113 0
-113 -292 -293 0
-113 -292 -294 0
-113 -293 -294 0
-143 -292 0
-144 -292 0
-142 -293 0
-144 -293 0
-142 -294 0
-143 -294 0
-113 -298 -299 0
-113 -298 -300 0
-113 -299 -300 0
-143 -298 0
-144 -298 0
-142 -299 0
-144 -299 0
-142 -300 0
-143 -300 0
-113 -301 -302 0
-113 -301 -303 0
-113 -302 -303 0
-143 -301 0
-144 -301 0
-142 -302 0
-144 -302 0
-142 -303 0
-143 -303 0
-113 -307 -308 0
-113 -307 -309 0
-113 -308 -309 0
-143 -307 0
-144 -307 0
-142 -308 0
-144 -308 0
-142 -309 0
-143 -309 0
-145 114 0
-146 114 0
-147 114 0
-114 -310 -311 0
-114 -310 -312 0
-114 -311 -312 0
-146 -310 0
-147 -310 0
-145 -311 0
-147 -311 0
-145 -312 0
-146 -312 0
-114 -316 -317 0
-114 -316 -318 0
-114 -317 -318 0
-146 -316 0
-147 -316 0
-145 -317 0
-147 -317 0
-145 -318 0
-146 -318 0
-114 -319 -320 0
-114 -319 -321 0
-114 -320 -321 0
-146 -319 0
-147 -319 0
-145 -320 0
-147 -320 0
-145 -321 0
-146 -321 0
-114 -322 -323 0
-114 -322 -324 0
-114 -323 -324 0
-146 -322 0
-147 -322 0
-145 -323 0
-147 -323 0
-145 -324 0
-146 -324 0
-148 115 0
-149 115 0
-150 115 0
-115 -328 -329 0
-115 -328 -330 0
-115 -329 -330 0
-149 -328 0
-150 -328 0
-148 -329 0
-150 -329 0
-148 -330 0
-149 -330 0
-115 -331 -332 0
-115 -331 -333 0
-115 -332 -333 0
-149 -331 0
-150 -331 0
-148 -332 0
-150 -332 0
-148 -333 0
-149 -333 0
-115 -340 -341 0
-115 -340 -342 0
-115 -341 -342 0
-149 -340 0
-150 -340 0
-148 -341 0
-150 -341 0
-148 -342 0
-149 -342 0
-115 -343 -344 0
-115 -343 -345 0
-115 -344 -345 0
-149 -343 0
-150 -343 0
-148 -344 0
-150 -344 0
-148 -345 0
-149 -345 0
-151 116 0
-152 116 0
-153 116 0
-116 -346 -347 0
-116 -346 -348 0
-116 -347 -348 0
-152 -346 0
-153 -346 0
-151 -347 0
-153 -347 0
-151 -348 0
-152 -348 0
-116 -349 -350 0
-116 -349 -351 0
-116 -350 -351 0
-152 -349 0
-153 -349 0
-151 -350 0
-153 -350 0
-151 -351 0
-152 -351 0
-116 -355 -356 0
-116 -355 -357 0
-116 -356 -357 0
-152 -355 0
-153 -355 0
-151 -356 0
-153 -356 0
-151 -357 0
-152 -357 0
-116 -361 -362 0
-116 -361 -363 0
-116 -362 -363 0
-152 -361 0
-153 -361 0
-151 -362 0
-153 -362 0
-151 -363 0
-152 -363 0
-154 117 0
-155 117 0
-156 117 0
-117 -364 -365 0
-117 -364 -366 0
-117 -365 -366 0
-155 -364 0
-156 -364 0
-154 -365 0
-156 -365 0
-154 -366 0
-155 -366 0
-117 -367 -368 0
-117 -367 -369 0
-117 -368 -369 0
-155 -367 0
-156 -367 0
-154 -368 0
-156 -368 0
-154 -369 0
-155 -369 0
-117 -373 -374 0
-117 -373 -375 0
-117 -374 -375 0
-155 -373 0
-156 -373 0
-154 -374 0
-156 -374 0
-154 -375 0
-155 -375 0
-117 -376 -377 0
-117 -376 -378 0
-117 -377 -378 0
-155 -376 0
-156 -376 0
-154 -377 0
-156 -377 0
-154 -378 0
-155 -378 0
-157 118 0
-158 118 0
-159 118 0
-118 -382 -383 0
-118 -382 -384 0
-118 -383 -384 0
-158 -382 0
-159 -382 0
-157 -383 0
-159 -383 0
-157 -384 0
-158 -384 0
-118 -385 -386 0
-118 -385 -387 0
-118 -386 -387 0
-158 -385 0
-159 -385 0
-157 -386 0
-159 -386 0
-157 -387 0
-158 -387 0
-118 -388 -389 0
-118 -388 -390 0
-118 -389 -390 0
-158 -388 0
-159 -388 0
-157 -389 0
-159 -389 0
-157 -390 0
-158 -390 0
-118 -397 -398 0
-118 -397 -399 0
-118 -398 -399 0
-158 -397 0
-159 -397 0
-157 -398 0
-159 -398 0
-157 -399 0
-158 -399 0
-160 119 0
-161 119 0
-162 119 0
-119 -400 -401 0
-119 -400 -402 0
-119 -401 -402 0
-161 -400 0
-162 -400 0
-160 -401 0
-162 -401 0
-160 -402 0
-161 -402 0
-119 -403 -404 0
-119 -403 -405 0
-119 -404 -405 0
-161 -403 0
-162 -403 0
-160 -404 0
-162 -404 0
-160 -405 0
-161 -405 0
-119 -406 -407 0
-119 -406 -408 0
-119 -407 -408 0
-161 -406 0
-162 -406 0
-160 -407 0
-162 -407 0
-160 -408 0
-161 -408 0
-119 -412 -413 0
-119 -412 -414 0
-119 -413 -414 0
-161 -412 0
-162 -412 0
-160 -413 0
-162 -413 0
-160 -414 0
-161 -414 0
-163 120 0
-164 120 0
-165 120 0
-120 -418 -419 0
-120 -418 -420 0
-120 -419 -420 0
-164 -418 0
-165 -418 0
-163 -419 0
-165 -419 0
-163 -420 0
-164 -420 0
-120 -421 -422 0
-120 -421 -423 0
-120 -422 -423 0
-164 -421 0
-165 -421 0
-163 -422 0
-165 -422 0
-163 -423 0
-164 -423 0
-120 -424 -425 0
-120 -424 -426 0
-120 -425 -426 0
-164 -424 0
-165 -424 0
-163 -425 0
-165 -425 0
-163 -426 0
-164 -426 0
-120 -427 -428 0
-120 -427 -429 0
-120 -428 -429 0
-164 -427 0
-165 -427 0
-163 -428 0
-165 -428 0
-163 -429 0
-164 -429 0
